8
 energy: -14.459942459080 gnorm: 0.000255257024 xtb: 6.7.1 (edcfbbe)
O           -0.30389884554986        1.27895270300663       -0.00017576399529
O           -0.98747599821777       -0.84141105681852       -0.00008169409226
C            1.37665147372353       -0.36696919793245        0.00009371329548
C           -0.08971086510383       -0.04481514638245       -0.00016665357811
H            1.83796055541961        0.06730476814411       -0.88350667027569
H            1.84071215963718        0.07851972208979        0.87658985360206
H            1.51878587382030       -1.44264014378047        0.00633386962762
H           -1.25522435372916        1.46815835167336       -0.00038665458381
