28
 energy: -47.254127479381 gnorm: 0.000410430230 xtb: 6.7.1 (edcfbbe)
C          -10.71948347497462        1.41194493607196       -1.27141196174010
C           -9.28341795745065        0.99713295698642       -1.42673106077194
O           -8.91491833715924       -0.12425675868591       -1.67499108263292
O           -8.46566466224919        2.03930923249878       -1.26365599740435
C           -7.02869017847847        1.83598431898872       -1.36461608848934
C           -6.56625900629743        1.08041166184656       -0.11211181910242
O           -6.72267976475559        1.18052684759579       -2.54423871400717
N           -6.52402556858152        3.17491782837186       -1.36732739796306
C           -5.21919999877978        3.53224697089179       -1.70566393358269
C           -4.19424029063515        2.61895965736044       -1.92455575349536
C           -2.90625216822004        3.05620937606020       -2.18087670944289
C           -2.61303864952693        4.41035674078682       -2.22973814813205
O           -1.35302712458008        4.87865074299858       -2.47619767965686
C           -3.63674308656673        5.33075928954709       -2.02974121735373
C           -4.91804309005826        4.89469635139874       -1.77297914157928
H          -11.35293076277372        0.53055885145801       -1.25957563823228
H          -10.99589155697093        2.04996342733955       -2.10799109082615
H          -10.83996596797504        1.98277404047486       -0.35485813471350
H           -6.97341823268621        0.07223768160211       -0.11225245313692
H           -6.91468684817564        1.61670963367128        0.76604090864614
H           -5.48289024568512        1.03690356801794       -0.09360250939236
H           -7.13345900097600        0.29974986866551       -2.52119067181793
H           -7.21963825258542        3.84599508947630       -1.65884104219178
H           -4.39684404885083        1.56145029257109       -1.93108736759858
H           -2.12292439629653        2.32903265900634       -2.35192950317814
H           -0.75503475385119        4.13372827226410       -2.60764695457360
H           -3.40793414791166        6.38320862864535       -2.08068567146198
H           -5.70637742694847        5.61697583409002       -1.61962116616946
