      -----------------------------------------------------------      
     |                   =====================                   |     
     |                           x T B                           |     
     |                   =====================                   |     
     |                         S. Grimme                         |     
     |          Mulliken Center for Theoretical Chemistry        |     
     |                    University of Bonn                     |     
      -----------------------------------------------------------      

   * xtb version 6.7.1 (edcfbbe) compiled by 'conda@c0858423619e' on 2025-09-04

   xtb is free software: you can redistribute it and/or modify it under
   the terms of the GNU Lesser General Public License as published by
   the Free Software Foundation, either version 3 of the License, or
   (at your option) any later version.
   
   xtb is distributed in the hope that it will be useful,
   but WITHOUT ANY WARRANTY; without even the implied warranty of
   MERCHANTABILITY or FITNESS FOR A PARTICULAR PURPOSE.  See the
   GNU Lesser General Public License for more details.
   
   Cite this work as:
   * C. Bannwarth, E. Caldeweyher, S. Ehlert, A. Hansen, P. Pracht,
     J. Seibert, S. Spicher, S. Grimme, WIREs Comput. Mol. Sci., 2020, 11,
     e01493. DOI: 10.1002/wcms.1493
   
   for GFN2-xTB:
   * C. Bannwarth, S. Ehlert and S. Grimme., J. Chem. Theory Comput., 2019,
     15, 1652-1671. DOI: 10.1021/acs.jctc.8b01176
   for GFN1-xTB:
   * S. Grimme, C. Bannwarth, P. Shushkov, J. Chem. Theory Comput., 2017,
     13, 1989-2009. DOI: 10.1021/acs.jctc.7b00118
   for GFN0-xTB:
   * P. Pracht, E. Caldeweyher, S. Ehlert, S. Grimme, ChemRxiv, 2019, preprint.
     DOI: 10.26434/chemrxiv.8326202.v1
   for GFN-FF:
   * S. Spicher and S. Grimme, Angew. Chem. Int. Ed., 2020, 59, 15665-15673.
     DOI: 10.1002/anie.202004239
   
   for ALPB and GBSA implicit solvation:
   * S. Ehlert, M. Stahn, S. Spicher, S. Grimme, J. Chem. Theory Comput.,
     2021, 17, 4250-4261. DOI: 10.1021/acs.jctc.1c00471
   
   for ddCOSMO and CPCM-X implicit solvation:
   * M. Stahn, S. Ehlert, S. Grimme, J. Phys. Chem. A,
     2023, XX, XXXX-XXXX. DOI: 10.1021/acs.jpca.3c04382
   
   for DFT-D4:
   * E. Caldeweyher, C. Bannwarth and S. Grimme, J. Chem. Phys., 2017,
     147, 034112. DOI: 10.1063/1.4993215
   * E. Caldeweyher, S. Ehlert, A. Hansen, H. Neugebauer, S. Spicher,
     C. Bannwarth and S. Grimme, J. Chem. Phys., 2019, 150, 154122.
     DOI: 10.1063/1.5090222
   * E. Caldeweyher, J.-M. Mewes, S. Ehlert and S. Grimme, Phys. Chem. Chem. Phys.
     2020, 22, 8499-8512. DOI: 10.1039/D0CP00502A
   
   for sTDA-xTB:
   * S. Grimme and C. Bannwarth, J. Chem. Phys., 2016, 145, 054103.
     DOI: 10.1063/1.4959605
   
   in the mass-spec context:
   * V. Asgeirsson, C. Bauer and S. Grimme, Chem. Sci., 2017, 8, 4879.
     DOI: 10.1039/c7sc00601b
   * J. Koopman and S. Grimme, ACS Omega 2019, 4, 12, 15120-15133.
     DOI: 10.1021/acsomega.9b02011
   
   for metadynamics refer to:
   * S. Grimme, J. Chem. Theory Comput., 2019, 155, 2847-2862
     DOI: 10.1021/acs.jctc.9b00143
   
   for SPH calculations refer to:
   * S. Spicher and S. Grimme, J. Chem. Theory Comput., 2021, 17, 1701-1714
     DOI: 10.1021/acs.jctc.0c01306
   
   for ONIOM refer to:
   * C. Plett, A. Katbashev, S. Ehlert, S. Grimme, M. Bursch,
     Phys. Chem. Chem. Phys., 2023, 25, 17860-17868. DOI: 10.1039/D3CP02178E
   
   for DIPRO refer to:
   * J. Kohn, N. Gildemeister, S. Grimme, D. Fazzi, A. Hansen,
     J. Chem. Phys., 2023, just accepted.
   
   for PTB refer to:
   * S. Grimme, M. Mueller, A. Hansen, J. Chem. Phys., 2023, 158, 124111.
     DOI: 10.1063/5.0137838
   
   with help from (in alphabetical order)
   P. Atkinson, C. Bannwarth, F. Bohle, G. Brandenburg, E. Caldeweyher
   M. Checinski, S. Dohm, S. Ehlert, S. Ehrlich, I. Gerasimov, C. Hölzer
   A. Katbashev, J. Kohn, J. Koopman, C. Lavigne, S. Lehtola, F. März, M. Müller,
   F. Musil, H. Neugebauer, J. Pisarek, C. Plett, P. Pracht, F. Pultar,
   J. Seibert, P. Shushkov, S. Spicher, M. Stahn, M. Steiner, T. Strunk,
   J. Stückrath, T. Rose, and J. Unsleber
   
 * started run on 2026/06/07 at 14:02:13.217     
   ID    Z sym.   atoms
    1    8 O      1
    2    7 N      2
    3    6 C      3-8
    4    1 H      9-15

           -------------------------------------------------
          |                Calculation Setup                |
           -------------------------------------------------

          program call               : xtb xtbopt.xyz --hess --alpb water
          hostname                   : fedora
          coordinate file            : xtbopt.xyz
          omp threads                :                    16


           -------------------------------------------------
          |                 G F N 2 - x T B                 |
           -------------------------------------------------

        Reference                      10.1021/acs.jctc.8b01176
      * Hamiltonian:
        H0-scaling (s, p, d)           1.850000    2.230000    2.230000
        zeta-weighting                 0.500000
      * Dispersion:
        s8                             2.700000
        a1                             0.520000
        a2                             5.000000
        s9                             5.000000
      * Repulsion:
        kExp                           1.500000    1.000000
        rExp                           1.000000
      * Coulomb:
        alpha                          2.000000
        third order                    shell-resolved
        anisotropic                    true
        a3                             3.000000
        a5                             4.000000
        cn-shift                       1.200000
        cn-exp                         4.000000
        max-rad                        5.000000

      * Solvation model:               ALPB
        Solvent                        water
        Parameter file                 internal GFN2-xTB/ALPB
        Dielectric constant                8.0200E+01
        Reference state                gsolv [1 M gas/solution]
        Free energy shift                  1.0808E-03 Eh       6.7819E-01 kcal/mol
        Temperature                        2.9815E+02 K
        Density                            1.0000E+00 kg/L
        Solvent mass                       1.8000E+01 g/mol
        Interaction kernel             P16
        Born radius scaling (c1)           1.4744E+00
        Born radii integrator          GBOBC
        Born offset                        0.0000E+00 a0       0.0000E+00 AA
        H-bond correction              true
        Ion screening                  false
        Surface tension                    1.0000E-05 Eh       1.5569E+01 dyn/cm
        Grid points                               230 per atom

          ...................................................
          :                      SETUP                      :
          :.................................................:
          :  # basis functions                  39          :
          :  # atomic orbitals                  39          :
          :  # shells                           23          :
          :  # electrons                        42          :
          :  max. iterations                   250          :
          :  Hamiltonian                  GFN2-xTB          :
          :  restarted?                      false          :
          :  GBSA solvation                   true          :
          :  PC potential                    false          :
          :  electronic temp.          300.0000000     K    :
          :  accuracy                    1.0000000          :
          :  -> integral cutoff          0.2500000E+02      :
          :  -> integral neglect         0.1000000E-07      :
          :  -> SCF convergence          0.1000000E-05 Eh   :
          :  -> wf. convergence          0.1000000E-03 e    :
          :  Broyden damping             0.4000000          :
          :  net charge                          0          :
          :  unpaired electrons                  0          :
          ...................................................

 iter      E             dE          RMSdq      gap      omega  full diag
   1    -23.7440386 -0.237440E+02  0.436E+00    2.79       0.0  T
   2    -23.7607887 -0.167500E-01  0.265E+00    3.46       1.0  T
   3    -23.7601804  0.608250E-03  0.700E-01    3.35       1.0  T
   4    -23.7617873 -0.160688E-02  0.227E-01    3.42       1.0  T
   5    -23.7621763 -0.389042E-03  0.798E-02    3.43       1.0  T
   6    -23.7621836 -0.732272E-05  0.345E-02    3.43       1.0  T
   7    -23.7621861 -0.246920E-05  0.165E-02    3.43       1.6  T
   8    -23.7621869 -0.806383E-06  0.424E-03    3.43       6.1  T
   9    -23.7621869 -0.196263E-07  0.220E-03    3.43      11.7  T
  10    -23.7621870 -0.202728E-07  0.801E-04    3.43      32.2  T
  11    -23.7621870 -0.196398E-08  0.304E-04    3.43      84.8  T

   *** convergence criteria satisfied after 11 iterations ***

         #    Occupation            Energy/Eh            Energy/eV
      -------------------------------------------------------------
         1        2.0000           -0.6960812             -18.9413
       ...           ...                  ...                  ...
        15        2.0000           -0.4698064             -12.7841
        16        2.0000           -0.4576092             -12.4522
        17        2.0000           -0.4445979             -12.0981
        18        2.0000           -0.4124505             -11.2233
        19        2.0000           -0.4107968             -11.1783
        20        2.0000           -0.3937779             -10.7152
        21        2.0000           -0.3378943              -9.1946 (HOMO)
        22                         -0.2119531              -5.7675 (LUMO)
        23                         -0.1862189              -5.0673
        24                         -0.0711942              -1.9373
        25                          0.0333061               0.9063
        26                          0.0815356               2.2187
       ...                                ...                  ...
        39                          0.6790271              18.4773
      -------------------------------------------------------------
                  HL-Gap            0.1259412 Eh            3.4270 eV
             Fermi-level           -0.2749237 Eh           -7.4811 eV

 SCC (total)                   0 d,  0 h,  0 min,  0.030 sec
 SCC setup                      ...        0 min,  0.001 sec (  1.660%)
 Dispersion                     ...        0 min,  0.000 sec (  0.961%)
 classical contributions        ...        0 min,  0.000 sec (  0.508%)
 integral evaluation            ...        0 min,  0.002 sec (  6.560%)
 iterations                     ...        0 min,  0.020 sec ( 66.169%)
 molecular gradient             ...        0 min,  0.007 sec ( 23.730%)
 printout                       ...        0 min,  0.000 sec (  0.330%)

         :::::::::::::::::::::::::::::::::::::::::::::::::::::
         ::                     SUMMARY                     ::
         :::::::::::::::::::::::::::::::::::::::::::::::::::::
         :: total energy             -23.399468764471 Eh    ::
         :: total w/o Gsasa/hb       -23.391090977312 Eh    ::
         :: gradient norm              0.000301601488 Eh/a0 ::
         :: HOMO-LUMO gap              3.427034418052 eV    ::
         ::.................................................::
         :: SCC energy               -23.762177556384 Eh    ::
         :: -> isotropic ES            0.042358743882 Eh    ::
         :: -> anisotropic ES          0.005029143239 Eh    ::
         :: -> anisotropic XC          0.008909105387 Eh    ::
         :: -> dispersion             -0.011080124978 Eh    ::
         :: -> Gsolv                  -0.015013702662 Eh    ::
         ::    -> Gelec               -0.006635915504 Eh    ::
         ::    -> Gsasa               -0.000809842237 Eh    ::
         ::    -> Ghb                 -0.008648704620 Eh    ::
         ::    -> Gshift               0.001080759698 Eh    ::
         :: repulsion energy           0.362708791914 Eh    ::
         :: add. restraining           0.000000000000 Eh    ::
         :: total charge               0.000000000000 e     ::
         :::::::::::::::::::::::::::::::::::::::::::::::::::::

           ------------------------------------------------- 
          |                Numerical Hessian                |
           ------------------------------------------------- 
step length          :   0.00500
SCC accuracy         :   0.30000
Hessian scale factor :   1.00000
frozen atoms in %    :   0.00000    0
RMS gradient         :   0.00030
estimated CPU  time      0.40 min
estimated wall time      0.03 min

writing file <hessian>.

 projected vibrational frequencies (cm⁻¹)
eigval :       -0.00    -0.00    -0.00     0.00     0.00     0.00
eigval :     -408.83   146.42   319.53   348.32   360.94   385.21
eigval :      409.17   438.81   441.20   494.12   616.05   657.77
eigval :      757.22   789.70   849.16   878.59   881.85   903.87
eigval :      968.43  1009.58  1108.74  1136.01  1184.99  1215.69
eigval :     1281.70  1329.19  1344.28  1435.06  1443.34  1507.50
eigval :     1577.92  1633.05  3058.46  3072.93  3078.38  3093.99
eigval :     3476.60  3529.07  3599.22
           -------------------------------------------------
          |                Property Printout                |
           -------------------------------------------------

    * Orbital Energies and Occupations

         #    Occupation            Energy/Eh            Energy/eV
      -------------------------------------------------------------
         1        2.0000           -0.6960831             -18.9414
       ...           ...                  ...                  ...
         9        2.0000           -0.5302594             -14.4291
        10        2.0000           -0.5212931             -14.1851
        11        2.0000           -0.5067563             -13.7895
        12        2.0000           -0.5040864             -13.7169
        13        2.0000           -0.4779009             -13.0043
        14        2.0000           -0.4719215             -12.8416
        15        2.0000           -0.4698062             -12.7841
        16        2.0000           -0.4576101             -12.4522
        17        2.0000           -0.4445983             -12.0981
        18        2.0000           -0.4124503             -11.2233
        19        2.0000           -0.4107990             -11.1784
        20        2.0000           -0.3937779             -10.7152
        21        2.0000           -0.3378965              -9.1946 (HOMO)
        22                         -0.2119531              -5.7675 (LUMO)
        23                         -0.1862189              -5.0673
        24                         -0.0711941              -1.9373
        25                          0.0333041               0.9063
        26                          0.0815347               2.2187
        27                          0.1350141               3.6739
        28                          0.1602801               4.3614
        29                          0.1670401               4.5454
        30                          0.1965805               5.3492
        31                          0.2225518               6.0559
        32                          0.2462396               6.7005
       ...                                ...                  ...
        39                          0.6790271              18.4773
      -------------------------------------------------------------
                  HL-Gap            0.1259433 Eh            3.4271 eV
             Fermi-level           -0.2749248 Eh           -7.4811 eV

     #   Z          covCN         q      C6AA      α(0)
     1   8 O        1.658    -0.483    22.521     6.406
     2   7 N        2.643    -0.307    27.909     7.846
     3   6 C        2.896     0.072    26.392     8.423
     4   6 C        2.925    -0.074    29.859     8.961
     5   6 C        2.925    -0.073    29.827     8.956
     6   6 C        2.845     0.119    25.374     8.256
     7   6 C        2.917    -0.077    29.918     8.970
     8   6 C        2.918    -0.063    29.570     8.917
     9   1 H        0.926     0.031     2.570     2.507
    10   1 H        0.926     0.031     2.569     2.506
    11   1 H        0.926     0.030     2.591     2.517
    12   1 H        0.926     0.033     2.543     2.494
    13   1 H        0.861     0.201     1.100     1.643
    14   1 H        0.861     0.200     1.104     1.646
    15   1 H        0.805     0.360     0.566     1.181

 Mol. C6AA /au·bohr⁶  :       2622.453670
 Mol. C8AA /au·bohr⁸  :      62537.765154
 Mol. α(0) /au        :         81.229748


Wiberg/Mayer (AO) data.
largest (>0.10) Wiberg bond orders for each atom

 ---------------------------------------------------------------------------
     #   Z sym  total        # sym  WBO       # sym  WBO       # sym  WBO
 ---------------------------------------------------------------------------
     1   8 O    2.030 --     6 C    1.038    15 H    0.851
     2   7 N    3.280 --     3 C    1.194    14 H    0.942    13 H    0.942
     3   6 C    3.976 --     4 C    1.334     5 C    1.326     2 N    1.194
     4   6 C    3.985 --     7 C    1.456     3 C    1.334     9 H    0.969
                             8 C    0.103
     5   6 C    3.985 --     8 C    1.471     3 C    1.326    10 H    0.969
                             7 C    0.102
     6   6 C    3.932 --     7 C    1.376     8 C    1.364     1 O    1.038
     7   6 C    3.987 --     4 C    1.456     6 C    1.376    11 H    0.967
                             5 C    0.102
     8   6 C    3.989 --     5 C    1.471     6 C    1.364    12 H    0.970
                             4 C    0.103
     9   1 H    0.999 --     4 C    0.969
    10   1 H    0.999 --     5 C    0.969
    11   1 H    0.999 --     7 C    0.967
    12   1 H    0.998 --     8 C    0.970
    13   1 H    0.959 --     2 N    0.942
    14   1 H    0.959 --     2 N    0.942
    15   1 H    0.870 --     1 O    0.851
 ---------------------------------------------------------------------------

Topologies differ in total number of bonds
Writing topology from bond orders to xtbtopo.mol

molecular dipole:
                 x           y           z       tot (Debye)
 q only:        1.141      -0.572       0.002
   full:        1.171      -0.726       0.005       3.503
molecular quadrupole (traceless):
                xx          xy          yy          xz          yz          zz
 q only:        6.516       5.357      -1.301       0.021      -0.000      -5.215
  q+dip:        7.014       6.732       1.974       0.046      -0.001      -8.988
   full:        6.628       6.823       0.550       0.047      -0.001      -7.178

           -------------------------------------------------
          |               Frequency Printout                |
           -------------------------------------------------
 projected vibrational frequencies (cm⁻¹)
eigval :       -0.00    -0.00    -0.00     0.00     0.00     0.00
eigval :     -408.83   146.42   319.53   348.32   360.94   385.21
eigval :      409.17   438.81   441.20   494.12   616.05   657.77
eigval :      757.22   789.70   849.16   878.59   881.85   903.87
eigval :      968.43  1009.58  1108.74  1136.01  1184.99  1215.69
eigval :     1281.70  1329.19  1344.28  1435.06  1443.34  1507.50
eigval :     1577.92  1633.05  3058.46  3072.93  3078.38  3093.99
eigval :     3476.60  3529.07  3599.22
 reduced masses (amu)
   1: 12.34   2: 11.52   3: 11.33   4: 11.77   5: 11.75   6: 12.21   7:  4.17   8: 12.13
   9: 11.04  10:  4.32  11:  9.66  12:  7.69  13:  9.88  14:  1.98  15: 12.77  16:  8.55
  17: 11.28  18: 11.43  19: 12.26  20:  5.18  21:  3.32  22: 11.53  23:  2.62  24:  3.60
  25:  4.34  26:  8.32  27:  3.84  28:  2.28  29:  1.93  30:  7.58  31:  3.56  32:  9.42
  33: 11.39  34: 10.00  35:  4.33  36: 10.11  37: 11.56  38: 11.62  39:  1.79  40:  1.81
  41:  1.84  42:  1.87  43:  1.87  44:  1.42  45:  2.21
 IR intensities (km·mol⁻¹)
   1:  0.06   2:  1.28   3:  0.95   4:  0.31   5:  0.21   6:  1.14   7:298.96   8:  1.26
   9:  9.73  10:191.86  11:  3.31  12: 21.69  13: 11.42  14:  0.00  15:  1.44  16:  0.38
  17:  1.88  18:  0.22  19: 90.90  20: 46.55  21:  0.19  22: 14.21  23:  0.27  24:  0.22
  25: 11.06  26:  9.94  27:268.78  28: 92.25  29:  9.05  30:506.13  31: 32.82  32:  9.19
Molecule has the following symmetry elements: (sigma) 
It seems to be the Cs point group
  33: 55.28  34: 51.13  35: 35.52  36:706.22  37:  9.28  38: 65.06  39: 82.93  40:139.63
  41:127.06  42: 80.57  43:124.99  44: 71.95  45: 22.68
 Raman intensities (Ä⁴*amu⁻¹)
   1:  0.00   2:  0.00   3:  0.00   4:  0.00   5:  0.00   6:  0.00   7:  0.00   8:  0.00
   9:  0.00  10:  0.00  11:  0.00  12:  0.00  13:  0.00  14:  0.00  15:  0.00  16:  0.00
  17:  0.00  18:  0.00  19:  0.00  20:  0.00  21:  0.00  22:  0.00  23:  0.00  24:  0.00
  25:  0.00  26:  0.00  27:  0.00  28:  0.00  29:  0.00  30:  0.00  31:  0.00  32:  0.00
  33:  0.00  34:  0.00  35:  0.00  36:  0.00  37:  0.00  38:  0.00  39:  0.00  40:  0.00
  41:  0.00  42:  0.00  43:  0.00  44:  0.00  45:  0.00
 output can be read by thermo (or use thermo option).
 writing <g98.out> molden fake output.
 recommended (thermochemical) frequency scaling factor: 1.0
           -------------------------------------------------
          |             Thermodynamic Functions             |
           -------------------------------------------------

cs  symmetry found (for desy threshold:  0.10E+00) used in thermo

          ...................................................
          :                      SETUP                      :
          :.................................................:
          :  # frequencies                          38      :
          :  # imaginary freq.                       1      :
          :  linear?                             false      :
          :  only rotor calc.                    false      :
          :  symmetry                               cs      :
          :  rotational number                       1      :
          :  scaling factor                  1.0000000      :
          :  rotor cutoff                   50.0000000 cm⁻¹ :
          :  imag. cutoff                  -20.0000000 cm⁻¹ :
          :.................................................:

    mode    ω/cm⁻¹     T·S(HO)/kcal·mol⁻¹    T·S(FR)/kcal·mol⁻¹   T·S(vib)
   ------------------------------------------------------------------------
       1    146.42    -0.81045 ( 98.66%)    -0.73813 (  1.34%)    -0.80948
   ------------------------------------------------------------------------

   temp. (K)  partition function   enthalpy   heat capacity  entropy
                                   cal/mol     cal/K/mol   cal/K/mol   J/K/mol
 298.15  VIB   9.33                 2546.489     21.562     12.976
         ROT  0.275E+06              888.752      2.981     27.870
         INT  0.256E+07             3435.241     24.543     40.846
         TR   0.110E+28             1481.254      4.968     39.960
         TOT                        4916.4950    29.5108    80.8059   338.0921

       T/K    H(0)-H(T)+PV         H(T)/Eh          T*S/Eh         G(T)/Eh
   ------------------------------------------------------------------------
    298.15    0.783493E-02    0.123479E+00    0.383935E-01    0.850859E-01
   ------------------------------------------------------------------------

         :::::::::::::::::::::::::::::::::::::::::::::::::::::
         ::                  THERMODYNAMIC                  ::
         :::::::::::::::::::::::::::::::::::::::::::::::::::::
         :: total free energy         -23.314382885260 Eh   ::
         ::.................................................::
         :: total energy              -23.399468763552 Eh   ::
         :: zero point energy           0.115644455748 Eh   ::
         :: G(RRHO) w/o ZPVE           -0.030558577456 Eh   ::
         :: G(RRHO) contrib.            0.085085878292 Eh   ::
         :::::::::::::::::::::::::::::::::::::::::::::::::::::
imag cut-off (cm-1) :    5.00
 found            1  significant imaginary frequency
 writing imag mode distorted coords to xtbhess.xyz
 for further optimization.

           -------------------------------------------------
          | TOTAL ENERGY              -23.399468763552 Eh   |
          | TOTAL ENTHALPY            -23.275989374379 Eh   |
          | TOTAL FREE ENERGY         -23.314382885260 Eh   |
          | GRADIENT NORM               0.000302974344 Eh/α |
          | HOMO-LUMO GAP               3.427092929818 eV   |
           -------------------------------------------------

------------------------------------------------------------------------
 * finished run on 2026/06/07 at 14:02:14.324     
------------------------------------------------------------------------
 total:
 * wall-time:     0 d,  0 h,  0 min,  1.105 sec
 *  cpu-time:     0 d,  0 h,  0 min, 16.487 sec
 * ratio c/w:    14.921 speedup
 SCF:
 * wall-time:     0 d,  0 h,  0 min,  0.030 sec
 *  cpu-time:     0 d,  0 h,  0 min,  0.457 sec
 * ratio c/w:    15.027 speedup
 analytical hessian:
 * wall-time:     0 d,  0 h,  0 min,  1.043 sec
 *  cpu-time:     0 d,  0 h,  0 min, 15.586 sec
 * ratio c/w:    14.939 speedup

