15
 xtb: 6.7.1 (edcfbbe)
O           -2.76261618157536        0.02843643332871        0.00000094774315
N            2.77895023507448        0.00411626065256        0.12473398900515
C            1.41450507684477       -0.00249249859921       -0.03072733019738
C            0.70087232011134       -1.20349101943268       -0.01073654813840
C            0.68891734263533        1.19326339971077       -0.01060377356233
C           -1.38824855883792       -0.01553285299657        0.00293410677239
C           -0.68053747898337       -1.20951216755452        0.00294226580963
C           -0.68992972691789        1.18663227401229        0.00312408465951
H            1.23775919762019       -2.14057954498673       -0.00417054995389
H            1.21735828517065        2.13498634709463       -0.00408719450640
H           -1.20961003388754       -2.15240417918871        0.00174654177536
H           -1.24796501708853        2.11040736533897        0.00174155698470
H            3.28595894936023       -0.85984446060776       -0.16157244814264
H            3.27700138442163        0.87322946522515       -0.15971015354203
H           -3.11806590237312       -0.87167887320783        0.00385423372899
