      -----------------------------------------------------------      
     |                   =====================                   |     
     |                           x T B                           |     
     |                   =====================                   |     
     |                         S. Grimme                         |     
     |          Mulliken Center for Theoretical Chemistry        |     
     |                    University of Bonn                     |     
      -----------------------------------------------------------      

   * xtb version 6.7.1 (edcfbbe) compiled by 'conda@c0858423619e' on 2025-09-04

   xtb is free software: you can redistribute it and/or modify it under
   the terms of the GNU Lesser General Public License as published by
   the Free Software Foundation, either version 3 of the License, or
   (at your option) any later version.
   
   xtb is distributed in the hope that it will be useful,
   but WITHOUT ANY WARRANTY; without even the implied warranty of
   MERCHANTABILITY or FITNESS FOR A PARTICULAR PURPOSE.  See the
   GNU Lesser General Public License for more details.
   
   Cite this work as:
   * C. Bannwarth, E. Caldeweyher, S. Ehlert, A. Hansen, P. Pracht,
     J. Seibert, S. Spicher, S. Grimme, WIREs Comput. Mol. Sci., 2020, 11,
     e01493. DOI: 10.1002/wcms.1493
   
   for GFN2-xTB:
   * C. Bannwarth, S. Ehlert and S. Grimme., J. Chem. Theory Comput., 2019,
     15, 1652-1671. DOI: 10.1021/acs.jctc.8b01176
   for GFN1-xTB:
   * S. Grimme, C. Bannwarth, P. Shushkov, J. Chem. Theory Comput., 2017,
     13, 1989-2009. DOI: 10.1021/acs.jctc.7b00118
   for GFN0-xTB:
   * P. Pracht, E. Caldeweyher, S. Ehlert, S. Grimme, ChemRxiv, 2019, preprint.
     DOI: 10.26434/chemrxiv.8326202.v1
   for GFN-FF:
   * S. Spicher and S. Grimme, Angew. Chem. Int. Ed., 2020, 59, 15665-15673.
     DOI: 10.1002/anie.202004239
   
   for ALPB and GBSA implicit solvation:
   * S. Ehlert, M. Stahn, S. Spicher, S. Grimme, J. Chem. Theory Comput.,
     2021, 17, 4250-4261. DOI: 10.1021/acs.jctc.1c00471
   
   for ddCOSMO and CPCM-X implicit solvation:
   * M. Stahn, S. Ehlert, S. Grimme, J. Phys. Chem. A,
     2023, XX, XXXX-XXXX. DOI: 10.1021/acs.jpca.3c04382
   
   for DFT-D4:
   * E. Caldeweyher, C. Bannwarth and S. Grimme, J. Chem. Phys., 2017,
     147, 034112. DOI: 10.1063/1.4993215
   * E. Caldeweyher, S. Ehlert, A. Hansen, H. Neugebauer, S. Spicher,
     C. Bannwarth and S. Grimme, J. Chem. Phys., 2019, 150, 154122.
     DOI: 10.1063/1.5090222
   * E. Caldeweyher, J.-M. Mewes, S. Ehlert and S. Grimme, Phys. Chem. Chem. Phys.
     2020, 22, 8499-8512. DOI: 10.1039/D0CP00502A
   
   for sTDA-xTB:
   * S. Grimme and C. Bannwarth, J. Chem. Phys., 2016, 145, 054103.
     DOI: 10.1063/1.4959605
   
   in the mass-spec context:
   * V. Asgeirsson, C. Bauer and S. Grimme, Chem. Sci., 2017, 8, 4879.
     DOI: 10.1039/c7sc00601b
   * J. Koopman and S. Grimme, ACS Omega 2019, 4, 12, 15120-15133.
     DOI: 10.1021/acsomega.9b02011
   
   for metadynamics refer to:
   * S. Grimme, J. Chem. Theory Comput., 2019, 155, 2847-2862
     DOI: 10.1021/acs.jctc.9b00143
   
   for SPH calculations refer to:
   * S. Spicher and S. Grimme, J. Chem. Theory Comput., 2021, 17, 1701-1714
     DOI: 10.1021/acs.jctc.0c01306
   
   for ONIOM refer to:
   * C. Plett, A. Katbashev, S. Ehlert, S. Grimme, M. Bursch,
     Phys. Chem. Chem. Phys., 2023, 25, 17860-17868. DOI: 10.1039/D3CP02178E
   
   for DIPRO refer to:
   * J. Kohn, N. Gildemeister, S. Grimme, D. Fazzi, A. Hansen,
     J. Chem. Phys., 2023, just accepted.
   
   for PTB refer to:
   * S. Grimme, M. Mueller, A. Hansen, J. Chem. Phys., 2023, 158, 124111.
     DOI: 10.1063/5.0137838
   
   with help from (in alphabetical order)
   P. Atkinson, C. Bannwarth, F. Bohle, G. Brandenburg, E. Caldeweyher
   M. Checinski, S. Dohm, S. Ehlert, S. Ehrlich, I. Gerasimov, C. Hölzer
   A. Katbashev, J. Kohn, J. Koopman, C. Lavigne, S. Lehtola, F. März, M. Müller,
   F. Musil, H. Neugebauer, J. Pisarek, C. Plett, P. Pracht, F. Pultar,
   J. Seibert, P. Shushkov, S. Spicher, M. Stahn, M. Steiner, T. Strunk,
   J. Stückrath, T. Rose, and J. Unsleber
   
 * started run on 2026/06/07 at 22:15:54.893     
   ID    Z sym.   atoms
    1    6 C      1, 2, 5, 6, 9-12, 14, 15
    2    8 O      3, 4, 7, 13
    3    7 N      8
    4    1 H      16-28

           -------------------------------------------------
          |                Calculation Setup                |
           -------------------------------------------------

          program call               : xtb molecula_intermedia.xyz --opt --alpb water
          hostname                   : fedora
          coordinate file            : molecula_intermedia.xyz
          omp threads                :                    16


           -------------------------------------------------
          |                 G F N 2 - x T B                 |
           -------------------------------------------------

        Reference                      10.1021/acs.jctc.8b01176
      * Hamiltonian:
        H0-scaling (s, p, d)           1.850000    2.230000    2.230000
        zeta-weighting                 0.500000
      * Dispersion:
        s8                             2.700000
        a1                             0.520000
        a2                             5.000000
        s9                             5.000000
      * Repulsion:
        kExp                           1.500000    1.000000
        rExp                           1.000000
      * Coulomb:
        alpha                          2.000000
        third order                    shell-resolved
        anisotropic                    true
        a3                             3.000000
        a5                             4.000000
        cn-shift                       1.200000
        cn-exp                         4.000000
        max-rad                        5.000000

      * Solvation model:               ALPB
        Solvent                        water
        Parameter file                 internal GFN2-xTB/ALPB
        Dielectric constant                8.0200E+01
        Reference state                gsolv [1 M gas/solution]
        Free energy shift                  1.0808E-03 Eh       6.7819E-01 kcal/mol
        Temperature                        2.9815E+02 K
        Density                            1.0000E+00 kg/L
        Solvent mass                       1.8000E+01 g/mol
        Interaction kernel             P16
        Born radius scaling (c1)           1.4744E+00
        Born radii integrator          GBOBC
        Born offset                        0.0000E+00 a0       0.0000E+00 AA
        H-bond correction              true
        Ion screening                  false
        Surface tension                    1.0000E-05 Eh       1.5569E+01 dyn/cm
        Grid points                               230 per atom

          ...................................................
          :                      SETUP                      :
          :.................................................:
          :  # basis functions                  73          :
          :  # atomic orbitals                  73          :
          :  # shells                           43          :
          :  # electrons                        82          :
          :  max. iterations                   250          :
          :  Hamiltonian                  GFN2-xTB          :
          :  restarted?                      false          :
          :  GBSA solvation                   true          :
          :  PC potential                    false          :
          :  electronic temp.          300.0000000     K    :
          :  accuracy                    1.0000000          :
          :  -> integral cutoff          0.2500000E+02      :
          :  -> integral neglect         0.1000000E-07      :
          :  -> SCF convergence          0.1000000E-05 Eh   :
          :  -> wf. convergence          0.1000000E-03 e    :
          :  Broyden damping             0.4000000          :
          :  net charge                          0          :
          :  unpaired electrons                  0          :
          ...................................................

 iter      E             dE          RMSdq      gap      omega  full diag
   1    -47.6993713 -0.476994E+02  0.470E+00    3.07       0.0  T
   2    -47.7584338 -0.590625E-01  0.260E+00    2.36       1.0  T
   3    -47.7585084 -0.746014E-04  0.107E+00    2.82       1.0  T
   4    -47.7638564 -0.534800E-02  0.183E-01    2.50       1.0  T
   5    -47.7641051 -0.248744E-03  0.869E-02    2.51       1.0  T
   6    -47.7641302 -0.250350E-04  0.422E-02    2.51       1.0  T
   7    -47.7641414 -0.112284E-04  0.159E-02    2.51       1.2  T
   8    -47.7641426 -0.118208E-05  0.612E-03    2.51       3.1  T
   9    -47.7641429 -0.283813E-06  0.316E-03    2.51       6.0  T
  10    -47.7641429 -0.518492E-07  0.135E-03    2.51      14.0  T
  11    -47.7641429 -0.794982E-08  0.522E-04    2.51      36.2  T
  12    -47.7641429 -0.203865E-08  0.221E-04    2.51      85.4  T

   *** convergence criteria satisfied after 12 iterations ***

         #    Occupation            Energy/Eh            Energy/eV
      -------------------------------------------------------------
         1        2.0000           -0.7584295             -20.6379
       ...           ...                  ...                  ...
        35        2.0000           -0.4485165             -12.2048
        36        2.0000           -0.4440770             -12.0840
        37        2.0000           -0.4311933             -11.7334
        38        2.0000           -0.4143490             -11.2750
        39        2.0000           -0.4060540             -11.0493
        40        2.0000           -0.3951536             -10.7527
        41        2.0000           -0.3456753              -9.4063 (HOMO)
        42                         -0.2535466              -6.8994 (LUMO)
        43                         -0.2199598              -5.9854
        44                         -0.1975885              -5.3767
        45                         -0.0856857              -2.3316
        46                         -0.0608560              -1.6560
       ...                                ...                  ...
        73                          0.6390246              17.3887
      -------------------------------------------------------------
                  HL-Gap            0.0921287 Eh            2.5070 eV
             Fermi-level           -0.2996110 Eh           -8.1528 eV

 SCC (total)                   0 d,  0 h,  0 min,  1.160 sec
 SCC setup                      ...        0 min,  0.004 sec (  0.329%)
 Dispersion                     ...        0 min,  0.001 sec (  0.118%)
 classical contributions        ...        0 min,  0.001 sec (  0.074%)
 integral evaluation            ...        0 min,  0.006 sec (  0.489%)
 iterations                     ...        0 min,  1.081 sec ( 93.225%)
 molecular gradient             ...        0 min,  0.067 sec (  5.744%)
 printout                       ...        0 min,  0.000 sec (  0.018%)

         :::::::::::::::::::::::::::::::::::::::::::::::::::::
         ::                     SUMMARY                     ::
         :::::::::::::::::::::::::::::::::::::::::::::::::::::
         :: total energy             -47.251621828188 Eh    ::
         :: total w/o Gsasa/hb       -47.240928118750 Eh    ::
         :: gradient norm              0.101936977368 Eh/a0 ::
         :: HOMO-LUMO gap              2.506950157225 eV    ::
         ::.................................................::
         :: SCC energy               -47.764197843817 Eh    ::
         :: -> isotropic ES            0.129305040149 Eh    ::
         :: -> anisotropic ES         -0.000768291913 Eh    ::
         :: -> anisotropic XC          0.009375992290 Eh    ::
         :: -> dispersion             -0.024151563143 Eh    ::
         :: -> Gsolv                  -0.026244819177 Eh    ::
         ::    -> Gelec               -0.015551109739 Eh    ::
         ::    -> Gsasa                0.002057420302 Eh    ::
         ::    -> Ghb                 -0.013831889438 Eh    ::
         ::    -> Gshift               0.001080759698 Eh    ::
         :: repulsion energy           0.512576015629 Eh    ::
         :: add. restraining           0.000000000000 Eh    ::
         :: total charge               0.000000000000 e     ::
         :::::::::::::::::::::::::::::::::::::::::::::::::::::

      ----------------------------------------------------------- 
     |                   =====================                   |
     |                        A N C O P T                        |
     |                   =====================                   |
     |               Approximate Normal Coordinate               |
     |                Rational Function Optimizer                |
      ----------------------------------------------------------- 
      ----------------------------------------------------------- 
     |                   =====================                   |
     |                        A N C O P T                        |
     |                   =====================                   |
     |               Approximate Normal Coordinate               |
     |                Rational Function Optimizer                |
      ----------------------------------------------------------- 

          ...................................................
          :                      SETUP                      :
          :.................................................:
          :   optimization level            normal          :
          :   max. optcycles                   200          :
          :   ANC micro-cycles                  20          :
          :   degrees of freedom                78          :
          :.................................................:
          :   RF solver                   davidson          :
          :   write xtbopt.log                true          :
          :   linear?                        false          :
          :   energy convergence         0.5000000E-05 Eh   :
          :   grad. convergence          0.1000000E-02 Eh/α :
          :   maxmium RF displ.          1.0000000          :
          :   Hlow (freq-cutoff)         0.1000000E-01      :
          :   Hmax (freq-cutoff)         5.0000000          :
          :   S6 in model hess.         20.0000000          :
          ...................................................

generating ANC from exact Hessian ...
Using Lindh-Hessian (1995)
 Shifting diagonal of input Hessian by    9.3130496091014762E-003
 Lowest  eigenvalues of input Hessian
    0.000000    0.000000    0.000000    0.000000    0.000000    0.000000
    0.010000    0.010477    0.011006    0.012019    0.013085    0.015605
    0.016123    0.019737    0.021970    0.023792    0.024614    0.025887
 Highest eigenvalues
    1.822959    1.845776    1.881163    1.971477    2.091686    2.232669


........................................................................
.............................. CYCLE    1 ..............................
........................................................................

 iter      E             dE          RMSdq      gap      omega  full diag
   1    -47.7641429 -0.477641E+02  0.102E-04    2.51       0.0  T
   2    -47.7641429 -0.313563E-10  0.674E-05    2.51     280.2  T
   3    -47.7641429 -0.102389E-10  0.368E-05    2.51     513.1  T
     SCC iter.                  ...        0 min,  0.198 sec
     gradient                   ...        0 min,  0.009 sec
 * total energy  :   -47.2516218 Eh     change       -0.3759340E-09 Eh
   gradient norm :     0.1019355 Eh/α   predicted     0.0000000E+00 (-100.00%)
   displ. norm   :     0.3494035 α      lambda       -0.1775115E-01
   maximum displ.:     0.1499052 α      in ANC's #15, #43, #11, ...

........................................................................
.............................. CYCLE    2 ..............................
........................................................................

 iter      E             dE          RMSdq      gap      omega  full diag
   1    -47.8101503 -0.478102E+02  0.235E-01    2.56       0.0  T
   2    -47.8103005 -0.150248E-03  0.140E-01    2.58       1.0  T
   3    -47.8102977  0.280071E-05  0.755E-02    2.58       1.0  T
   4    -47.8103388 -0.410720E-04  0.138E-02    2.58       1.4  T
   5    -47.8103402 -0.140130E-05  0.640E-03    2.58       3.0  T
   6    -47.8103403 -0.126394E-06  0.394E-03    2.58       4.8  T
   7    -47.8103404 -0.820520E-07  0.100E-03    2.58      18.9  T
   8    -47.8103404 -0.398681E-08  0.444E-04    2.58      42.5  T
     SCC iter.                  ...        0 min,  0.282 sec
     gradient                   ...        0 min,  0.010 sec
 * total energy  :   -47.2646967 Eh     change       -0.1307489E-01 Eh
   gradient norm :     0.0524777 Eh/α   predicted    -0.9966575E-02 ( -23.77%)
   displ. norm   :     0.3940287 α      lambda       -0.8742338E-02
   maximum displ.:     0.1632318 α      in ANC's #15, #13, #11, ...

........................................................................
.............................. CYCLE    3 ..............................
........................................................................

 iter      E             dE          RMSdq      gap      omega  full diag
   1    -47.8380075 -0.478380E+02  0.191E-01    2.65       0.0  T
   2    -47.8381632 -0.155729E-03  0.115E-01    2.66       1.0  T
   3    -47.8381842 -0.209361E-04  0.670E-02    2.66       1.0  T
   4    -47.8382038 -0.196414E-04  0.128E-02    2.66       1.5  T
   5    -47.8382049 -0.107583E-05  0.550E-03    2.66       3.4  T
   6    -47.8382050 -0.122005E-06  0.342E-03    2.66       5.5  T
   7    -47.8382051 -0.560747E-07  0.927E-04    2.66      20.4  T
   8    -47.8382051 -0.280035E-08  0.353E-04    2.66      53.5  T
     SCC iter.                  ...        0 min,  1.086 sec
     gradient                   ...        0 min,  0.014 sec
 * total energy  :   -47.2700261 Eh     change       -0.5329373E-02 Eh
   gradient norm :     0.0182864 Eh/α   predicted    -0.5051760E-02 (  -5.21%)
   displ. norm   :     0.2402442 α      lambda       -0.1510887E-02
   maximum displ.:     0.1116140 α      in ANC's #13, #11, #12, ...

........................................................................
.............................. CYCLE    4 ..............................
........................................................................

 iter      E             dE          RMSdq      gap      omega  full diag
   1    -47.8394920 -0.478395E+02  0.775E-02    2.69       0.0  T
   2    -47.8395056 -0.136632E-04  0.468E-02    2.69       1.0  T
   3    -47.8395046  0.108871E-05  0.235E-02    2.69       1.0  T
   4    -47.8395091 -0.454724E-05  0.442E-03    2.69       4.3  T
   5    -47.8395092 -0.118509E-06  0.216E-03    2.69       8.7  T
   6    -47.8395092 -0.162486E-07  0.118E-03    2.69      16.1  T
   7    -47.8395092 -0.792031E-08  0.409E-04    2.69      46.2  T
   8    -47.8395092 -0.487724E-09  0.162E-04    2.69     116.3  T
     SCC iter.                  ...        0 min,  0.570 sec
     gradient                   ...        0 min,  0.014 sec
 * total energy  :   -47.2710641 Eh     change       -0.1038041E-02 Eh
   gradient norm :     0.0113429 Eh/α   predicted    -0.7990515E-03 ( -23.02%)
   displ. norm   :     0.2243388 α      lambda       -0.7148397E-03
   maximum displ.:     0.0984663 α      in ANC's #13, #3, #5, ...

........................................................................
.............................. CYCLE    5 ..............................
........................................................................

 iter      E             dE          RMSdq      gap      omega  full diag
   1    -47.8372220 -0.478372E+02  0.695E-02    2.71       0.0  T
   2    -47.8372271 -0.507846E-05  0.408E-02    2.71       1.0  T
   3    -47.8372269  0.238179E-06  0.102E-02    2.72       1.8  T
   4    -47.8372280 -0.112924E-05  0.302E-03    2.71       6.3  T
   5    -47.8372281 -0.672462E-07  0.140E-03    2.71      13.5  T
   6    -47.8372281 -0.418046E-08  0.682E-04    2.71      27.7  T
   7    -47.8372281 -0.277483E-08  0.268E-04    2.71      70.5  T
     SCC iter.                  ...        0 min,  0.576 sec
     gradient                   ...        0 min,  0.014 sec
 * total energy  :   -47.2715264 Eh     change       -0.4622944E-03 Eh
   gradient norm :     0.0086440 Eh/α   predicted    -0.3754215E-03 ( -18.79%)
   displ. norm   :     0.1584190 α      lambda       -0.2778906E-03
   maximum displ.:     0.0775814 α      in ANC's #3, #2, #13, ...

........................................................................
.............................. CYCLE    6 ..............................
........................................................................

 iter      E             dE          RMSdq      gap      omega  full diag
   1    -47.8362613 -0.478363E+02  0.429E-02    2.73       0.0  T
   2    -47.8362633 -0.194976E-05  0.250E-02    2.72       1.0  T
   3    -47.8362630  0.264431E-06  0.797E-03    2.72       2.4  T
   4    -47.8362637 -0.661125E-06  0.213E-03    2.72       8.9  T
   5    -47.8362637 -0.309788E-07  0.104E-03    2.72      18.2  T
   6    -47.8362637 -0.300375E-08  0.492E-04    2.72      38.4  T
   7    -47.8362637 -0.128905E-08  0.172E-04    2.72     110.2  T
     SCC iter.                  ...        0 min,  0.934 sec
     gradient                   ...        0 min,  0.008 sec
 * total energy  :   -47.2717243 Eh     change       -0.1979194E-03 Eh
   gradient norm :     0.0077503 Eh/α   predicted    -0.1424380E-03 ( -28.03%)
   displ. norm   :     0.1685498 α      lambda       -0.2192453E-03
   maximum displ.:     0.0908401 α      in ANC's #2, #3, #5, ...

........................................................................
.............................. CYCLE    7 ..............................
........................................................................

 iter      E             dE          RMSdq      gap      omega  full diag
   1    -47.8362881 -0.478363E+02  0.443E-02    2.72       0.0  T
   2    -47.8362900 -0.186935E-05  0.259E-02    2.72       1.0  T
   3    -47.8362897  0.354144E-06  0.821E-03    2.72       2.3  T
   4    -47.8362905 -0.791691E-06  0.216E-03    2.72       8.8  T
   5    -47.8362905 -0.269973E-07  0.112E-03    2.72      16.8  T
   6    -47.8362905 -0.216242E-08  0.469E-04    2.72      40.3  T
   7    -47.8362905 -0.178667E-08  0.167E-04    2.72     113.1  T
     SCC iter.                  ...        0 min,  0.891 sec
     gradient                   ...        0 min,  0.012 sec
 * total energy  :   -47.2718750 Eh     change       -0.1506072E-03 Eh
   gradient norm :     0.0067483 Eh/α   predicted    -0.1127399E-03 ( -25.14%)
   displ. norm   :     0.1465948 α      lambda       -0.1481251E-03
   maximum displ.:     0.0960603 α      in ANC's #2, #3, #13, ...

........................................................................
.............................. CYCLE    8 ..............................
........................................................................

 iter      E             dE          RMSdq      gap      omega  full diag
   1    -47.8370971 -0.478371E+02  0.386E-02    2.73       0.0  T
   2    -47.8370987 -0.154241E-05  0.225E-02    2.73       1.0  T
   3    -47.8370985  0.194641E-06  0.704E-03    2.73       2.7  T
   4    -47.8370991 -0.588726E-06  0.206E-03    2.73       9.2  T
   5    -47.8370991 -0.181762E-07  0.106E-03    2.73      17.8  T
   6    -47.8370991 -0.287130E-08  0.402E-04    2.73      47.0  T
   7    -47.8370991 -0.107120E-08  0.152E-04    2.73     124.3  T
     SCC iter.                  ...        0 min,  0.559 sec
     gradient                   ...        0 min,  0.014 sec
 * total energy  :   -47.2719823 Eh     change       -0.1073201E-03 Eh
   gradient norm :     0.0058178 Eh/α   predicted    -0.7565641E-04 ( -29.50%)
   displ. norm   :     0.1656716 α      lambda       -0.1471086E-03
   maximum displ.:     0.1234551 α      in ANC's #2, #3, #16, ...

........................................................................
.............................. CYCLE    9 ..............................
........................................................................

 iter      E             dE          RMSdq      gap      omega  full diag
   1    -47.8377550 -0.478378E+02  0.516E-02    2.73       0.0  T
   2    -47.8377572 -0.219501E-05  0.299E-02    2.73       1.0  T
   3    -47.8377568  0.364290E-06  0.911E-03    2.73       2.1  T
   4    -47.8377579 -0.107289E-05  0.265E-03    2.73       7.1  T
   5    -47.8377579 -0.192509E-07  0.135E-03    2.73      14.0  T
   6    -47.8377579 -0.835740E-08  0.464E-04    2.73      40.7  T
   7    -47.8377579 -0.941810E-09  0.212E-04    2.73      89.3  T
     SCC iter.                  ...        0 min,  0.852 sec
     gradient                   ...        0 min,  0.015 sec
 * total energy  :   -47.2720910 Eh     change       -0.1087536E-03 Eh
   gradient norm :     0.0044672 Eh/α   predicted    -0.7560415E-04 ( -30.48%)
   displ. norm   :     0.1875102 α      lambda       -0.1480055E-03
   maximum displ.:     0.1505008 α      in ANC's #2, #16, #13, ...

........................................................................
.............................. CYCLE   10 ..............................
........................................................................

 iter      E             dE          RMSdq      gap      omega  full diag
   1    -47.8378174 -0.478378E+02  0.645E-02    2.74       0.0  T
   2    -47.8378212 -0.383984E-05  0.370E-02    2.74       1.0  T
   3    -47.8378203  0.936174E-06  0.133E-02    2.73       1.4  T
   4    -47.8378225 -0.219092E-05  0.332E-03    2.73       5.7  T
   5    -47.8378225 -0.264246E-07  0.158E-03    2.73      12.0  T
   6    -47.8378225 -0.121331E-07  0.564E-04    2.73      33.5  T
   7    -47.8378225 -0.131691E-08  0.245E-04    2.73      77.1  T
     SCC iter.                  ...        0 min,  0.787 sec
     gradient                   ...        0 min,  0.015 sec
 * total energy  :   -47.2722010 Eh     change       -0.1099315E-03 Eh
   gradient norm :     0.0049532 Eh/α   predicted    -0.7660619E-04 ( -30.31%)
   displ. norm   :     0.2018327 α      lambda       -0.1590398E-03
   maximum displ.:     0.1630081 α      in ANC's #2, #16, #4, ...

........................................................................
.............................. CYCLE   11 ..............................
........................................................................

 iter      E             dE          RMSdq      gap      omega  full diag
   1    -47.8378822 -0.478379E+02  0.758E-02    2.75       0.0  T
   2    -47.8378875 -0.529739E-05  0.435E-02    2.75       1.0  T
   3    -47.8378855  0.207878E-05  0.181E-02    2.75       1.0  T
   4    -47.8378896 -0.413600E-05  0.369E-03    2.74       5.1  T
   5    -47.8378896 -0.285145E-07  0.183E-03    2.74      10.3  T
   6    -47.8378896 -0.191105E-07  0.662E-04    2.74      28.6  T
   7    -47.8378896 -0.178779E-08  0.309E-04    2.74      61.2  T
     SCC iter.                  ...        0 min,  0.514 sec
     gradient                   ...        0 min,  0.018 sec
 * total energy  :   -47.2723092 Eh     change       -0.1082566E-03 Eh
   gradient norm :     0.0068199 Eh/α   predicted    -0.8276424E-04 ( -23.55%)
   displ. norm   :     0.1938902 α      lambda       -0.1331540E-03
   maximum displ.:     0.1449637 α      in ANC's #2, #3, #4, ...

........................................................................
.............................. CYCLE   12 ..............................
........................................................................

 iter      E             dE          RMSdq      gap      omega  full diag
   1    -47.8363665 -0.478364E+02  0.726E-02    2.75       0.0  T
   2    -47.8363709 -0.444017E-05  0.418E-02    2.75       1.0  T
   3    -47.8363686  0.232706E-05  0.182E-02    2.75       1.0  T
   4    -47.8363727 -0.409791E-05  0.300E-03    2.75       6.3  T
   5    -47.8363727 -0.195794E-07  0.149E-03    2.75      12.7  T
   6    -47.8363727 -0.106123E-07  0.474E-04    2.75      39.8  T
   7    -47.8363727 -0.132923E-08  0.207E-04    2.75      91.5  T
     SCC iter.                  ...        0 min,  0.499 sec
     gradient                   ...        0 min,  0.013 sec
 * total energy  :   -47.2723922 Eh     change       -0.8301940E-04 Eh
   gradient norm :     0.0064804 Eh/α   predicted    -0.6908279E-04 ( -16.79%)
   displ. norm   :     0.1800596 α      lambda       -0.1589329E-03
   maximum displ.:     0.1132078 α      in ANC's #3, #2, #5, ...

........................................................................
.............................. CYCLE   13 ..............................
........................................................................

 iter      E             dE          RMSdq      gap      omega  full diag
   1    -47.8374829 -0.478375E+02  0.553E-02    2.77       0.0  T
   2    -47.8374855 -0.252248E-05  0.322E-02    2.77       1.0  T
   3    -47.8374840  0.143932E-05  0.135E-02    2.77       1.4  T
   4    -47.8374864 -0.240720E-05  0.218E-03    2.77       8.7  T
   5    -47.8374864 -0.128094E-07  0.113E-03    2.77      16.8  T
   6    -47.8374865 -0.473283E-08  0.519E-04    2.77      36.4  T
   7    -47.8374865 -0.202477E-08  0.171E-04    2.77     110.7  T
     SCC iter.                  ...        0 min,  0.588 sec
     gradient                   ...        0 min,  0.016 sec
 * total energy  :   -47.2724795 Eh     change       -0.8721630E-04 Eh
   gradient norm :     0.0067208 Eh/α   predicted    -0.8204327E-04 (  -5.93%)
   displ. norm   :     0.1519133 α      lambda       -0.1183630E-03
   maximum displ.:     0.0884114 α      in ANC's #2, #3, #5, ...

........................................................................
.............................. CYCLE   14 ..............................
........................................................................

 iter      E             dE          RMSdq      gap      omega  full diag
   1    -47.8359751 -0.478360E+02  0.566E-02    2.78       0.0  T
   2    -47.8359786 -0.341844E-05  0.330E-02    2.78       1.0  T
   3    -47.8359772  0.133465E-05  0.144E-02    2.78       1.3  T
   4    -47.8359797 -0.244893E-05  0.254E-03    2.78       7.4  T
   5    -47.8359797 -0.214329E-07  0.123E-03    2.78      15.4  T
   6    -47.8359797 -0.572661E-08  0.497E-04    2.78      38.0  T
   7    -47.8359797 -0.155131E-08  0.178E-04    2.78     106.2  T
     SCC iter.                  ...        0 min,  0.016 sec
     gradient                   ...        0 min,  0.012 sec
 * total energy  :   -47.2725390 Eh     change       -0.5955359E-04 Eh
   gradient norm :     0.0058715 Eh/α   predicted    -0.6054791E-04 (   1.67%)
   displ. norm   :     0.0956977 α      lambda       -0.1002489E-03
   maximum displ.:     0.0683355 α      in ANC's #3, #5, #2, ...

........................................................................
.............................. CYCLE   15 ..............................
........................................................................

 iter      E             dE          RMSdq      gap      omega  full diag
   1    -47.8368829 -0.478369E+02  0.245E-02    2.78       0.0  T
   2    -47.8368840 -0.111794E-05  0.139E-02    2.78       1.4  T
   3    -47.8368840  0.809808E-07  0.570E-03    2.78       3.3  T
   4    -47.8368843 -0.311110E-06  0.162E-03    2.79      11.7  T
   5    -47.8368843 -0.130397E-07  0.669E-04    2.79      28.2  T
   6    -47.8368843 -0.327389E-08  0.323E-04    2.78      58.5  T
     SCC iter.                  ...        0 min,  0.679 sec
     gradient                   ...        0 min,  0.010 sec
 * total energy  :   -47.2725938 Eh     change       -0.5482537E-04 Eh
   gradient norm :     0.0038707 Eh/α   predicted    -0.5058602E-04 (  -7.73%)
   displ. norm   :     0.0681153 α      lambda       -0.3612006E-04
   maximum displ.:     0.0489757 α      in ANC's #3, #2, #5, ...

........................................................................
.............................. CYCLE   16 ..............................
........................................................................

 iter      E             dE          RMSdq      gap      omega  full diag
   1    -47.8369268 -0.478369E+02  0.213E-02    2.80       0.0  T
   2    -47.8369272 -0.421145E-06  0.126E-02    2.80       1.5  T
   3    -47.8369271  0.660477E-07  0.312E-03    2.80       6.1  T
   4    -47.8369273 -0.141729E-06  0.851E-04    2.80      22.2  T
   5    -47.8369273 -0.564749E-08  0.398E-04    2.80      47.5  T
     SCC iter.                  ...        0 min,  0.340 sec
     gradient                   ...        0 min,  0.010 sec
 * total energy  :   -47.2726220 Eh     change       -0.2820615E-04 Eh
   gradient norm :     0.0026337 Eh/α   predicted    -0.1814728E-04 ( -35.66%)
   displ. norm   :     0.0979463 α      lambda       -0.4031061E-04
   maximum displ.:     0.0704537 α      in ANC's #3, #2, #1, ...

........................................................................
.............................. CYCLE   17 ..............................
........................................................................

 iter      E             dE          RMSdq      gap      omega  full diag
   1    -47.8367031 -0.478367E+02  0.334E-02    2.81       0.0  T
   2    -47.8367037 -0.564444E-06  0.197E-02    2.81       1.0  T
   3    -47.8367035  0.194665E-06  0.439E-03    2.81       4.3  T
   4    -47.8367039 -0.358521E-06  0.115E-03    2.81      16.4  T
   5    -47.8367039 -0.558239E-08  0.563E-04    2.81      33.6  T
   6    -47.8367039 -0.649436E-09  0.272E-04    2.81      69.5  T
     SCC iter.                  ...        0 min,  0.615 sec
     gradient                   ...        0 min,  0.014 sec
 * total energy  :   -47.2726489 Eh     change       -0.2682444E-04 Eh
   gradient norm :     0.0020564 Eh/α   predicted    -0.2035089E-04 ( -24.13%)
   displ. norm   :     0.0673603 α      lambda       -0.1610756E-04
   maximum displ.:     0.0462233 α      in ANC's #3, #2, #1, ...

........................................................................
.............................. CYCLE   18 ..............................
........................................................................

 iter      E             dE          RMSdq      gap      omega  full diag
   1    -47.8366686 -0.478367E+02  0.226E-02    2.82       0.0  T
   2    -47.8366687 -0.140323E-06  0.133E-02    2.82       1.4  T
   3    -47.8366687  0.320975E-07  0.204E-03    2.82       9.3  T
   4    -47.8366688 -0.846343E-07  0.681E-04    2.82      27.7  T
   5    -47.8366688 -0.144770E-08  0.318E-04    2.82      59.3  T
     SCC iter.                  ...        0 min,  0.519 sec
     gradient                   ...        0 min,  0.007 sec
 * total energy  :   -47.2726607 Eh     change       -0.1185487E-04 Eh
   gradient norm :     0.0017474 Eh/α   predicted    -0.8094297E-05 ( -31.72%)
   displ. norm   :     0.1044290 α      lambda       -0.1487220E-04
   maximum displ.:     0.0628062 α      in ANC's #3, #2, #1, ...

........................................................................
.............................. CYCLE   19 ..............................
........................................................................

 iter      E             dE          RMSdq      gap      omega  full diag
   1    -47.8365911 -0.478366E+02  0.375E-02    2.82       0.0  T
   2    -47.8365914 -0.289938E-06  0.220E-02    2.82       1.0  T
   3    -47.8365913  0.143009E-06  0.396E-03    2.82       4.8  T
   4    -47.8365915 -0.288774E-06  0.107E-03    2.82      17.6  T
   5    -47.8365915 -0.918689E-09  0.499E-04    2.82      37.9  T
   6    -47.8365916 -0.183722E-08  0.161E-04    2.82     117.4  T
     SCC iter.                  ...        0 min,  0.411 sec
     gradient                   ...        0 min,  0.008 sec
 * total energy  :   -47.2726739 Eh     change       -0.1316641E-04 Eh
   gradient norm :     0.0017214 Eh/α   predicted    -0.7477108E-05 ( -43.21%)
   displ. norm   :     0.0420899 α      lambda       -0.7786012E-05
   maximum displ.:     0.0282946 α      in ANC's #2, #1, #7, ...

........................................................................
.............................. CYCLE   20 ..............................
........................................................................

 iter      E             dE          RMSdq      gap      omega  full diag
   1    -47.8369388 -0.478369E+02  0.134E-02    2.83       0.0  T
   2    -47.8369390 -0.154236E-06  0.789E-03    2.83       2.4  T
   3    -47.8369389  0.577500E-07  0.260E-03    2.83       7.3  T
   4    -47.8369390 -0.949474E-07  0.482E-04    2.83      39.2  T
   5    -47.8369390 -0.141502E-08  0.248E-04    2.83      76.1  T
     SCC iter.                  ...        0 min,  0.348 sec
     gradient                   ...        0 min,  0.006 sec
 * total energy  :   -47.2726822 Eh     change       -0.8357525E-05 Eh
   gradient norm :     0.0014142 Eh/α   predicted    -0.3899744E-05 ( -53.34%)
   displ. norm   :     0.0801043 α      lambda       -0.1027095E-04
   maximum displ.:     0.0543976 α      in ANC's #2, #1, #5, ...
 * RMSD in coord.:     0.3777411 α      energy gain  -0.2106041E-01 Eh

generating ANC from exact Hessian ...
Using Lindh-Hessian (1995)
 Shifting diagonal of input Hessian by    9.2046488335562043E-003
 Lowest  eigenvalues of input Hessian
    0.000000    0.000000    0.000000    0.000000    0.000000    0.000000
    0.010000    0.010572    0.011052    0.012420    0.013368    0.016307
    0.016925    0.021329    0.023027    0.025237    0.026394    0.027008
 Highest eigenvalues
    1.817172    1.909819    1.930819    2.049162    2.158234    2.333230


........................................................................
.............................. CYCLE   21 ..............................
........................................................................

 iter      E             dE          RMSdq      gap      omega  full diag
   1    -47.8367792 -0.478368E+02  0.246E-02    2.82       0.0  T
   2    -47.8367794 -0.196241E-06  0.144E-02    2.82       1.3  T
   3    -47.8367794 -0.635836E-09  0.181E-03    2.82      10.4  T
   4    -47.8367794 -0.522865E-07  0.699E-04    2.82      27.0  T
   5    -47.8367794 -0.285532E-08  0.363E-04    2.82      52.1  T
     SCC iter.                  ...        0 min,  0.677 sec
     gradient                   ...        0 min,  0.021 sec
 * total energy  :   -47.2726912 Eh     change       -0.8946469E-05 Eh
   gradient norm :     0.0016183 Eh/α   predicted     0.0000000E+00 (-100.00%)
   displ. norm   :     0.0237774 α      lambda       -0.6611172E-05
   maximum displ.:     0.0124589 α      in ANC's #5, #2, #1, ...

........................................................................
.............................. CYCLE   22 ..............................
........................................................................

 iter      E             dE          RMSdq      gap      omega  full diag
   1    -47.8369158 -0.478369E+02  0.969E-03    2.82       0.0  T
   2    -47.8369160 -0.132710E-06  0.566E-03    2.82       3.3  T
   3    -47.8369159  0.365477E-07  0.285E-03    2.82       6.6  T
   4    -47.8369160 -0.804622E-07  0.429E-04    2.82      44.0  T
   5    -47.8369160 -0.944169E-09  0.205E-04    2.82      92.3  T
     SCC iter.                  ...        0 min,  0.443 sec
     gradient                   ...        0 min,  0.013 sec
 * total energy  :   -47.2726990 Eh     change       -0.7829630E-05 Eh
   gradient norm :     0.0006645 Eh/α   predicted    -0.3666945E-05 ( -53.17%)
   displ. norm   :     0.0505671 α      lambda       -0.8617557E-05
   maximum displ.:     0.0276157 α      in ANC's #2, #1, #5, ...

........................................................................
.............................. CYCLE   23 ..............................
........................................................................

 iter      E             dE          RMSdq      gap      omega  full diag
   1    -47.8369650 -0.478370E+02  0.157E-02    2.82       0.0  T
   2    -47.8369653 -0.291912E-06  0.914E-03    2.82       2.1  T
   3    -47.8369651  0.110609E-06  0.457E-03    2.82       4.1  T
   4    -47.8369654 -0.222574E-06  0.644E-04    2.82      29.3  T
   5    -47.8369654 -0.154949E-08  0.331E-04    2.82      57.2  T
     SCC iter.                  ...        0 min,  0.701 sec
     gradient                   ...        0 min,  0.021 sec
 * total energy  :   -47.2727063 Eh     change       -0.7328785E-05 Eh
   gradient norm :     0.0011938 Eh/α   predicted    -0.4314565E-05 ( -41.13%)
   displ. norm   :     0.0406593 α      lambda       -0.4486781E-05
   maximum displ.:     0.0244419 α      in ANC's #2, #1, #6, ...

........................................................................
.............................. CYCLE   24 ..............................
........................................................................

 iter      E             dE          RMSdq      gap      omega  full diag
   1    -47.8369183 -0.478369E+02  0.100E-02    2.81       0.0  T
   2    -47.8369184 -0.686212E-07  0.587E-03    2.81       3.2  T
   3    -47.8369183  0.437134E-07  0.213E-03    2.81       8.9  T
   4    -47.8369184 -0.662797E-07  0.339E-04    2.81      55.7  T
   5    -47.8369184 -0.433658E-09  0.188E-04    2.81     100.7  T
     SCC iter.                  ...        0 min,  0.420 sec
     gradient                   ...        0 min,  0.021 sec
 * total energy  :   -47.2727111 Eh     change       -0.4780814E-05 Eh
   gradient norm :     0.0008869 Eh/α   predicted    -0.2245955E-05 ( -53.02%)
   displ. norm   :     0.0519065 α      lambda       -0.4683839E-05
   maximum displ.:     0.0322311 α      in ANC's #2, #1, #6, ...

   *** GEOMETRY OPTIMIZATION CONVERGED AFTER 24 ITERATIONS ***

------------------------------------------------------------------------
 total energy gain   :        -0.0210893 Eh      -13.2337 kcal/mol
 total RMSD          :         0.3866498 a0        0.2046 Å
 total power (kW/mol):        -2.3070809 (step)   -3.8838 (real)
------------------------------------------------------------------------

 ANCopt (total)                0 d,  0 h,  0 min, 14.257 sec
 optimizer setup                ...        0 min,  0.000 sec (  0.001%)
 model hessian                  ...        0 min,  0.070 sec (  0.491%)
 ANC generation                 ...        0 min,  0.151 sec (  1.058%)
 coordinate transformation      ...        0 min,  0.000 sec (  0.003%)
 single point calculation       ...        0 min, 14.020 sec ( 98.339%)
 optimization log               ...        0 min,  0.003 sec (  0.021%)
 hessian update                 ...        0 min,  0.003 sec (  0.023%)
 rational function              ...        0 min,  0.003 sec (  0.018%)

================
 final structure:
================
28
 xtb: 6.7.1 (edcfbbe)
C          -10.72128389514684        1.44514037690311       -1.28172679830004
C           -9.29865102756361        1.00970629755702       -1.42289665194251
O           -8.93746680896355       -0.12518488910121       -1.65665178000375
O           -8.45823563792025        2.03314806831508       -1.26596860744135
C           -7.02020429436867        1.81925002703100       -1.34972562949207
C           -6.57457000118853        1.03680478013311       -0.11074443103834
O           -6.70660146393077        1.19049570083696       -2.54726481337913
N           -6.51356561979231        3.15888371049442       -1.32721710294579
C           -5.21876098073405        3.52500838328542       -1.68828834354623
C           -4.18204494890126        2.62110124809012       -1.89563900612937
C           -2.90068180410261        3.06501759820987       -2.17261611996913
C           -2.62283815914769        4.42134420770090       -2.25124248355210
O           -1.37076891782419        4.90429013543271       -2.51601735903999
C           -3.65685548406397        5.33300338239886       -2.06115912149480
C           -4.93191629093349        4.88926220806168       -1.78627386513257
H          -11.36635725832433        0.57323677868711       -1.25306844618901
H          -10.98300706034080        2.06947954416134       -2.13277541673522
H          -10.83094579645033        2.04143249793337       -0.38074021345935
H           -7.01531515697440        0.04320200195627       -0.11935170974329
H           -6.90150792958620        1.57596932601427        0.77292196450265
H           -5.49345434349632        0.95885930123055       -0.10051548955175
H           -7.05159557413861        0.28056290147483       -2.54128753177166
H           -7.21585428202312        3.83864725216384       -1.58333767320871
H           -4.37011438170243        1.56105629485868       -1.87420712286773
H           -2.11483966475807        2.34075512377968       -2.33192756696650
H           -0.74743749913837        4.17146839926775       -2.62593891312736
H           -3.43943740311680        6.38689232112299       -2.13381596294543
H           -5.72336731536899        5.60830502200074       -1.64060180453039

 Bond Distances (Angstroems)
 ---------------------------
C1-C2=1.4945         C1-H16=1.0850        C1-H17=1.0875        C1-H18=1.0860        C2-C1=1.4945         C2-O3=1.2137         
C2-O4=1.3336         O3-C2=1.2137         O4-C2=1.3336         O4-C5=1.4563         C5-O4=1.4563         C5-C6=1.5316         
C5-O7=1.3884         C5-N8=1.4324         C6-C5=1.5316         C6-H19=1.0870        C6-H20=1.0856        C6-H21=1.0840        
O7-C5=1.3884         O7-H22=0.9732        N8-C5=1.4324         N8-C9=1.3932         N8-H23=1.0104        C9-N8=1.3932         
C9-C10=1.3910        C9-C15=1.3975        C10-C9=1.3910        C10-C11=1.3841       C10-H24=1.0768       C11-C10=1.3841       
C11-C12=1.3867       C11-H25=1.0805       C12-C11=1.3867       C12-O13=1.3679       C12-C14=1.3916       O13-C12=1.3679       
O13-H26=0.9683       C14-C12=1.3916       C14-C15=1.3778       C14-H27=1.0785       C15-C9=1.3975        C15-C14=1.3778       
C15-H28=1.0792       H16-C1=1.0850        H17-C1=1.0875        H18-C1=1.0860        H19-C6=1.0870        H20-C6=1.0856        
H21-C6=1.0840        H22-O7=0.9732        H23-N8=1.0104        H24-C10=1.0768       H25-C11=1.0805       H26-O13=0.9683       
H27-C14=1.0785       H28-C15=1.0792       
 C  H  Rav=1.0830 sigma=0.0037  Rmin=1.0768  Rmax=1.0875    10
 C  C  Rav=1.4193 sigma=0.0552  Rmin=1.3778  Rmax=1.5316     8
 N  H  Rav=1.0104 sigma=0.0000  Rmin=1.0104  Rmax=1.0104     1
 N  C  Rav=1.4128 sigma=0.0196  Rmin=1.3932  Rmax=1.4324     2
 O  H  Rav=0.9707 sigma=0.0024  Rmin=0.9683  Rmax=0.9732     2
 O  C  Rav=1.3520 sigma=0.0799  Rmin=1.2137  Rmax=1.4563     5

 selected bond angles (degree)
 --------------------
H16-C1-C2=109.53               H17-C1-C2=108.81               H17-C1-H16=109.81              H18-C1-C2=109.54               
H18-C1-H16=111.06              H18-C1-H17=108.04              O3-C2-C1=125.02                O4-C2-C1=111.42                
O4-C2-O3=123.56                C5-O4-C2=120.19                C6-C5-O4=108.41                O7-C5-O4=109.83                
O7-C5-C6=113.62                N8-C5-O4=102.18                N8-C5-C6=111.23                N8-C5-O7=110.93                
H19-C6-C5=110.03               H20-C6-C5=108.49               H20-C6-H19=109.77              H21-C6-C5=109.55               
H21-C6-H19=109.80              H21-C6-H20=109.17              H22-O7-C5=109.76               C9-N8-C5=124.78                
H23-N8-C5=112.29               H23-N8-C9=113.80               C10-C9-N8=124.09               C15-C9-N8=117.74               
C15-C9-C10=118.10              C11-C10-C9=120.76              H24-C10-C9=120.44              H24-C10-C11=118.78             

 selected dihedral angles (degree)
 ---------------------------------
O3-C2-C1-H16=  9.46           O3-C2-C1-H17=249.41           O3-C2-C1-H18=131.49           O4-C2-C1-H16=189.14           
O4-C2-C1-H17= 69.08           O4-C2-C1-H18=311.17           C5-O4-C2-C1=179.26            C5-O4-C2-O3=358.95            
C6-C5-O4-C2=289.39            O7-C5-O4-C2= 54.06            N8-C5-O4-C2=171.85            H19-C6-C5-O4= 65.20           
H19-C6-C5-O7=302.81           H19-C6-C5-N8=176.79           H20-C6-C5-O4=305.09           H20-C6-C5-O7=182.70           
H20-C6-C5-N8= 56.68           H21-C6-C5-O4=186.00           H21-C6-C5-O7= 63.61           H21-C6-C5-N8=297.59           
H22-O7-C5-O4=291.73           H22-O7-C5-C6= 53.33           H22-O7-C5-N8=179.52           C9-N8-C5-O4=195.49            
C9-N8-C5-C6= 79.99            C9-N8-C5-O7=312.49            H23-N8-C5-O4=340.14           H23-N8-C5-C6=224.65           
H23-N8-C5-O7= 97.15           C10-C9-N8-C5=348.37           C10-C9-N8-H23=204.17          C15-C9-N8-C5=171.49           
C15-C9-N8-H23= 27.29          C11-C10-C9-N8=184.00          C11-C10-C9-C15=  0.87         H24-C10-C9-N8=  5.96          
H24-C10-C9-C15=182.83         
           -------------------------------------------------
          |                Final Singlepoint                |
           -------------------------------------------------

          ...................................................
          :                      SETUP                      :
          :.................................................:
          :  # basis functions                  73          :
          :  # atomic orbitals                  73          :
          :  # shells                           43          :
          :  # electrons                        82          :
          :  max. iterations                   250          :
          :  Hamiltonian                  GFN2-xTB          :
          :  restarted?                      false          :
          :  GBSA solvation                   true          :
          :  PC potential                    false          :
          :  electronic temp.          300.0000000     K    :
          :  accuracy                    1.0000000          :
          :  -> integral cutoff          0.2500000E+02      :
          :  -> integral neglect         0.1000000E-07      :
          :  -> SCF convergence          0.1000000E-05 Eh   :
          :  -> wf. convergence          0.1000000E-03 e    :
          :  Broyden damping             0.4000000          :
          :  net charge                          0          :
          :  unpaired electrons                  0          :
          ...................................................

 iter      E             dE          RMSdq      gap      omega  full diag
   1    -47.8369184 -0.478369E+02  0.833E-05    2.81       0.0  T
   2    -47.8369184 -0.247908E-10  0.530E-05    2.81     356.9  T
   3    -47.8369184 -0.574829E-11  0.346E-05    2.81     546.7  T

   *** convergence criteria satisfied after 3 iterations ***

         #    Occupation            Energy/Eh            Energy/eV
      -------------------------------------------------------------
         1        2.0000           -0.7614675             -20.7206
       ...           ...                  ...                  ...
        35        2.0000           -0.4500811             -12.2473
        36        2.0000           -0.4451625             -12.1135
        37        2.0000           -0.4326115             -11.7720
        38        2.0000           -0.4169349             -11.3454
        39        2.0000           -0.4139851             -11.2651
        40        2.0000           -0.3995085             -10.8712
        41        2.0000           -0.3517125              -9.5706 (HOMO)
        42                         -0.2483645              -6.7583 (LUMO)
        43                         -0.2177839              -5.9262
        44                         -0.1979040              -5.3852
        45                         -0.0803865              -2.1874
        46                         -0.0344500              -0.9374
       ...                                ...                  ...
        73                          0.6757599              18.3884
      -------------------------------------------------------------
                  HL-Gap            0.1033480 Eh            2.8122 eV
             Fermi-level           -0.3000385 Eh           -8.1645 eV

 SCC (total)                   0 d,  0 h,  0 min,  0.344 sec
 SCC setup                      ...        0 min,  0.001 sec (  0.244%)
 Dispersion                     ...        0 min,  0.000 sec (  0.107%)
 classical contributions        ...        0 min,  0.000 sec (  0.044%)
 integral evaluation            ...        0 min,  0.006 sec (  1.621%)
 iterations                     ...        0 min,  0.327 sec ( 94.953%)
 molecular gradient             ...        0 min,  0.010 sec (  2.978%)
 printout                       ...        0 min,  0.000 sec (  0.045%)

         :::::::::::::::::::::::::::::::::::::::::::::::::::::
         ::                     SUMMARY                     ::
         :::::::::::::::::::::::::::::::::::::::::::::::::::::
         :: total energy             -47.272711124979 Eh    ::
         :: total w/o Gsasa/hb       -47.262860026814 Eh    ::
         :: gradient norm              0.000886785762 Eh/a0 ::
         :: HOMO-LUMO gap              2.812242425677 eV    ::
         ::.................................................::
         :: SCC energy               -47.836968846470 Eh    ::
         :: -> isotropic ES            0.125459541971 Eh    ::
         :: -> anisotropic ES         -0.002805686336 Eh    ::
         :: -> anisotropic XC          0.009786068619 Eh    ::
         :: -> dispersion             -0.024481755210 Eh    ::
         :: -> Gsolv                  -0.023427916725 Eh    ::
         ::    -> Gelec               -0.013576818559 Eh    ::
         ::    -> Gsasa                0.001947109226 Eh    ::
         ::    -> Ghb                 -0.012878967090 Eh    ::
         ::    -> Gshift               0.001080759698 Eh    ::
         :: repulsion energy           0.564257721490 Eh    ::
         :: add. restraining           0.000000000000 Eh    ::
         :: total charge               0.000000000000 e     ::
         :::::::::::::::::::::::::::::::::::::::::::::::::::::

           -------------------------------------------------
          |                Property Printout                |
           -------------------------------------------------

    * Orbital Energies and Occupations

         #    Occupation            Energy/Eh            Energy/eV
      -------------------------------------------------------------
         1        2.0000           -0.7614675             -20.7206
       ...           ...                  ...                  ...
        29        2.0000           -0.4801386             -13.0652
        30        2.0000           -0.4774629             -12.9924
        31        2.0000           -0.4760259             -12.9533
        32        2.0000           -0.4720666             -12.8456
        33        2.0000           -0.4701090             -12.7923
        34        2.0000           -0.4647698             -12.6470
        35        2.0000           -0.4500811             -12.2473
        36        2.0000           -0.4451625             -12.1135
        37        2.0000           -0.4326115             -11.7720
        38        2.0000           -0.4169349             -11.3454
        39        2.0000           -0.4139851             -11.2651
        40        2.0000           -0.3995085             -10.8712
        41        2.0000           -0.3517125              -9.5706 (HOMO)
        42                         -0.2483645              -6.7583 (LUMO)
        43                         -0.2177839              -5.9262
        44                         -0.1979040              -5.3852
        45                         -0.0803865              -2.1874
        46                         -0.0344500              -0.9374
        47                          0.0080874               0.2201
        48                          0.0664812               1.8090
        49                          0.0759955               2.0679
        50                          0.0965938               2.6285
        51                          0.1284377               3.4950
        52                          0.1395032               3.7961
       ...                                ...                  ...
        73                          0.6757599              18.3884
      -------------------------------------------------------------
                  HL-Gap            0.1033480 Eh            2.8122 eV
             Fermi-level           -0.3000385 Eh           -8.1645 eV

     #   Z          covCN         q      C6AA      α(0)
     1   6 C        3.754    -0.176    23.992     6.984
     2   6 C        2.700     0.380    20.572     7.423
     3   8 O        0.856    -0.480    23.348     6.478
     4   8 O        1.703    -0.310    19.160     5.910
     5   6 C        3.595     0.343    16.027     5.796
     6   6 C        3.753    -0.148    23.420     6.901
     7   8 O        1.656    -0.498    22.850     6.453
     8   7 N        2.694    -0.238    26.224     7.606
     9   6 C        2.901     0.069    26.458     8.434
    10   6 C        2.922    -0.061    29.505     8.908
    11   6 C        2.919    -0.077    29.925     8.971
    12   6 C        2.845     0.130    25.146     8.218
    13   8 O        1.659    -0.469    22.226     6.364
    14   6 C        2.919    -0.061    29.528     8.911
    15   6 C        2.928    -0.065    29.608     8.924
    16   1 H        0.925     0.099     1.797     2.097
    17   1 H        0.925     0.116     1.645     2.005
    18   1 H        0.925     0.113     1.675     2.024
    19   1 H        0.925     0.067     2.122     2.278
    20   1 H        0.925     0.075     2.034     2.230
    21   1 H        0.925     0.077     2.008     2.216
    22   1 H        0.804     0.366     0.551     1.166
    23   1 H        0.860     0.206     1.076     1.625
    24   1 H        0.926     0.041     2.432     2.439
    25   1 H        0.926     0.042     2.427     2.436
    26   1 H        0.805     0.367     0.550     1.165
    27   1 H        0.926     0.048     2.339     2.392
    28   1 H        0.926     0.044     2.402     2.424

 Mol. C6AA /au·bohr⁶  :       8229.857712
 Mol. C8AA /au·bohr⁸  :     189956.889762
 Mol. α(0) /au        :        138.777416


Wiberg/Mayer (AO) data.
largest (>0.10) Wiberg bond orders for each atom

 ---------------------------------------------------------------------------
     #   Z sym  total        # sym  WBO       # sym  WBO       # sym  WBO
 ---------------------------------------------------------------------------
     1   6 C    3.978 --     2 C    1.006    16 H    0.977    18 H    0.956
                            17 H    0.943
     2   6 C    3.894 --     3 O    1.694     4 O    1.140     1 C    1.006
     3   8 O    1.981 --     2 C    1.694     4 O    0.161
     4   8 O    2.287 --     2 C    1.140     5 C    0.870     3 O    0.161
     5   6 C    3.904 --     7 O    1.004     8 N    1.003     6 C    0.974
                             4 O    0.870
     6   6 C    3.985 --    20 H    0.981    19 H    0.980    21 H    0.974
                             5 C    0.974
     7   8 O    1.962 --     5 C    1.004    22 H    0.832
     8   7 N    3.260 --     9 C    1.101     5 C    1.003    23 H    0.921
     9   6 C    3.965 --    10 C    1.370    15 C    1.344     8 N    1.101
    10   6 C    3.988 --    11 C    1.442     9 C    1.370    24 H    0.964
                            14 C    0.104
    11   6 C    3.987 --    10 C    1.442    12 C    1.382    25 H    0.966
                            15 C    0.104
    12   6 C    3.937 --    11 C    1.382    14 C    1.355    13 O    1.056
    13   8 O    2.050 --    12 C    1.056    26 H    0.846
    14   6 C    3.988 --    15 C    1.476    12 C    1.355    27 H    0.968
                            10 C    0.104
    15   6 C    3.987 --    14 C    1.476     9 C    1.344    28 H    0.967
                            11 C    0.104
    16   1 H    0.990 --     1 C    0.977
    17   1 H    0.986 --     1 C    0.943
    18   1 H    0.987 --     1 C    0.956
    19   1 H    0.995 --     6 C    0.980
    20   1 H    0.994 --     6 C    0.981
    21   1 H    0.994 --     6 C    0.974
    22   1 H    0.866 --     7 O    0.832
    23   1 H    0.957 --     8 N    0.921
    24   1 H    0.998 --    10 C    0.964
    25   1 H    0.998 --    11 C    0.966
    26   1 H    0.865 --    13 O    0.846
    27   1 H    0.997 --    14 C    0.968
    28   1 H    0.998 --    15 C    0.967
 ---------------------------------------------------------------------------

Topologies differ in total number of bonds
Writing topology from bond orders to xtbtopo.mol

molecular dipole:
                 x           y           z       tot (Debye)
 q only:       -0.702       0.052       0.685
   full:       -0.845      -0.183       0.585       2.654
molecular quadrupole (traceless):
                xx          xy          yy          xz          yz          zz
 q only:       36.232     -19.323     -19.843     -12.007       4.089     -16.389
  q+dip:       41.415     -19.825     -23.087      -9.856       4.080     -18.327
   full:       40.915     -19.417     -24.795      -9.432       4.030     -16.120

           -------------------------------------------------
          |                Geometry Summary                 |
           -------------------------------------------------

      molecular mass/u    :      211.2149116
   center of mass at/Å    :       -6.0073838       2.6242712      -1.6895708
  moments of inertia/u·Å² :        0.2480189E+03   0.1998286E+04   0.2126826E+04
rotational constants/cm⁻¹ :        0.6796915E-01   0.8436046E-02   0.7926193E-02

 * 26 selected distances

     #   Z          #   Z                                           value/Å
     2   6 C        3   8 O                                       1.2137025
     2   6 C        4   8 O                                       1.3335508
     5   6 C        6   6 C                                       1.5316283 (max)
     5   6 C        7   8 O                                       1.3884449
     5   6 C        8   7 N                                       1.4324134
     8   7 N        9   6 C                                       1.3931759
     9   6 C       10   6 C                                       1.3909791
    10   6 C       11   6 C                                       1.3840773
    11   6 C       12   6 C                                       1.3867233
    12   6 C       13   8 O                                       1.3678524
    12   6 C       14   6 C                                       1.3915625
     9   6 C       15   6 C                                       1.3975228
    14   6 C       15   6 C                                       1.3777694
     1   6 C       16   1 H                                       1.0849687
     1   6 C       17   1 H                                       1.0874660
     1   6 C       18   1 H                                       1.0859867
     6   6 C       19   1 H                                       1.0870037
     6   6 C       20   1 H                                       1.0855659
     6   6 C       21   1 H                                       1.0839702
     7   8 O       22   1 H                                       0.9731570
     8   7 N       23   1 H                                       1.0103889
    10   6 C       24   1 H                                       1.0768124
    11   6 C       25   1 H                                       1.0805019
    13   8 O       26   1 H                                       0.9683247 (min)
    14   6 C       27   1 H                                       1.0785322
    15   6 C       28   1 H                                       1.0791839

 * 6 distinct bonds (by element types)

   Z      Z             #   av. dist./Å        max./Å        min./Å
   1 H    6 C          10     1.0829992     1.0874660     1.0768124
   6 C    6 C           7     1.4086090     1.5316283     1.3777694
   1 H    7 N           1     1.0103889     1.0103889     1.0103889
   6 C    7 N           2     1.4127947     1.4324134     1.3931759
   1 H    8 O           2     0.9707408     0.9731570     0.9683247
   6 C    8 O           4     1.3258877     1.3884449     1.2137025


optimized geometry written to: xtbopt.xyz


           -------------------------------------------------
          | TOTAL ENERGY              -47.272711124979 Eh   |
          | GRADIENT NORM               0.000886785762 Eh/α |
          | HOMO-LUMO GAP               2.812242425677 eV   |
           -------------------------------------------------

------------------------------------------------------------------------
 * finished run on 2026/06/07 at 22:16:10.686     
------------------------------------------------------------------------
 total:
 * wall-time:     0 d,  0 h,  0 min, 15.793 sec
 *  cpu-time:     0 d,  0 h,  3 min, 28.827 sec
 * ratio c/w:    13.223 speedup
 SCF:
 * wall-time:     0 d,  0 h,  0 min,  1.160 sec
 *  cpu-time:     0 d,  0 h,  0 min, 14.314 sec
 * ratio c/w:    12.341 speedup
 ANC optimizer:
 * wall-time:     0 d,  0 h,  0 min, 14.602 sec
 *  cpu-time:     0 d,  0 h,  3 min, 14.118 sec
 * ratio c/w:    13.294 speedup

