 Entering Gaussian System
 *********************************************
 Gaussian 98:
 frequency output generated by the xtb code
 *********************************************
                         Standard orientation:
 --------------------------------------------------------------------
  Center     Atomic     Atomic              Coordinates (Angstroms)
  Number     Number      Type              X           Y           Z
 --------------------------------------------------------------------
    1          6             0      -10.719482    1.411999   -1.271377
    2          6             0       -9.283419    0.997179   -1.426701
    3          8             0       -8.914926   -0.124213   -1.674960
    4          8             0       -8.465659    2.039352   -1.263630
    5          6             0       -7.028686    1.836019   -1.364595
    6          6             0       -6.566254    1.080446   -0.112091
    7          8             0       -6.722683    1.180558   -2.544218
    8          7             0       -6.524014    3.174950   -1.367310
    9          6             0       -5.219188    3.532272   -1.705652
   10          6             0       -4.194234    2.618979   -1.924546
   11          6             0       -2.906244    3.056221   -2.180872
   12          6             0       -2.613024    4.410367   -2.229737
   13          8             0       -1.353010    4.878654   -2.476202
   14          6             0       -3.636723    5.330775   -2.029738
   15          6             0       -4.918024    4.894719   -1.772971
   16          1             0      -11.352933    0.530616   -1.259537
   17          1             0      -10.995889    2.050018   -2.107956
   18          1             0      -10.839958    1.982830   -0.354824
   19          1             0       -6.973419    0.072274   -0.112228
   20          1             0       -6.914676    1.616747    0.766062
   21          1             0       -5.482886    1.036932   -0.093585
   22          1             0       -7.133467    0.299783   -2.521167
   23          1             0       -7.219625    3.846030   -1.658823
   24          1             0       -4.396843    1.561470   -1.931075
   25          1             0       -2.122921    2.329040   -2.351926
   26          1             0       -0.755022    4.133728   -2.607652
   27          1             0       -3.407908    6.383223   -2.080685
   28          1             0       -5.706354    5.617003   -1.619611
 --------------------------------------------------------------------
     1 basis functions        1 primitive gaussians
     1 alpha electrons        1 beta electrons

 Harmonic frequencies (cm**-1), IR intensities (km*mol⁻¹),
 Raman scattering activities (A**4/amu), Raman depolarization ratios,
 reduced masses (AMU), force constants (mDyne/A) and normal coordinates:
                      1                      2                      3
                        a                      a                      a 
 Frequencies --    13.6063                24.1654                63.1335
 Red. masses --     1.4367                12.3850                10.3575
 Frc consts  --     0.0000                 0.0000                 0.0000
 IR Inten    --     1.4675                 0.4381                 2.2818
 Raman Activ --     0.0000                 0.0000                 0.0000
 Depolar     --     0.0000                 0.0000                 0.0000
 Atom AN      X      Y      Z        X      Y      Z        X      Y      Z
   1   6     0.00  -0.03   0.11     0.00   0.09  -0.27    -0.01  -0.11  -0.37
   2   6    -0.00  -0.00  -0.02     0.01   0.05  -0.15     0.05  -0.05  -0.04
   3   8     0.01  -0.00  -0.02    -0.01   0.08  -0.29     0.18  -0.08   0.22
   4   8    -0.01   0.01  -0.07     0.03  -0.00   0.08    -0.04   0.02  -0.05
   5   6    -0.01   0.01  -0.02     0.03  -0.04   0.18    -0.02   0.08   0.07
   6   6    -0.04   0.04   0.02    -0.11  -0.19   0.14    -0.02   0.19   0.14
   7   8     0.03  -0.02   0.01     0.14   0.10   0.16     0.06   0.00   0.15
   8   7    -0.01   0.01  -0.04     0.09  -0.05   0.40    -0.06   0.09   0.03
   9   6    -0.00   0.00  -0.02     0.03  -0.03   0.21    -0.03   0.06   0.05
  10   6     0.01   0.00   0.03     0.06  -0.02   0.25    -0.13   0.01  -0.22
  11   6     0.01  -0.00   0.04     0.01   0.01   0.06    -0.12  -0.05  -0.29
  12   6     0.01  -0.00   0.01    -0.05   0.01  -0.15    -0.02  -0.06  -0.06
  13   8     0.01  -0.01   0.02    -0.11   0.04  -0.41    -0.01  -0.14  -0.18
  14   6    -0.00  -0.00  -0.04    -0.07  -0.01  -0.16     0.09  -0.01   0.28
  15   6    -0.01   0.00  -0.06    -0.03  -0.03   0.01     0.08   0.05   0.33
  16   1    -0.04   0.02  -0.48    -0.01   0.03  -0.12     0.00  -0.04  -0.20
  17   1     0.12   0.47   0.36     0.04   0.05  -0.07     0.06   0.01  -0.10
  18   1    -0.06  -0.50   0.33    -0.02  -0.00  -0.07    -0.08  -0.08  -0.09
  19   1    -0.01   0.01   0.01    -0.04  -0.05  -0.00     0.02   0.04   0.05
  20   1    -0.02   0.02  -0.00    -0.04  -0.08   0.05    -0.03   0.06   0.03
  21   1    -0.01   0.01   0.01    -0.03  -0.07   0.06    -0.00   0.09   0.05
  22   1     0.00  -0.00   0.00     0.03   0.03  -0.00     0.03  -0.01   0.06
  23   1    -0.00   0.00  -0.02     0.02   0.00   0.15    -0.01   0.02   0.01
  24   1     0.00  -0.00   0.02     0.03  -0.01   0.12    -0.06   0.01  -0.11
  25   1     0.00  -0.00   0.02     0.01   0.00   0.03    -0.06  -0.02  -0.15
  26   1     0.00  -0.00   0.02    -0.02   0.01  -0.09    -0.03  -0.04  -0.11
  27   1    -0.00  -0.00  -0.02    -0.04  -0.00  -0.09     0.05  -0.01   0.14
  28   1    -0.00   0.00  -0.03    -0.01  -0.01  -0.00     0.05   0.02   0.17
                      4                      5                      6
                        a                      a                      a 
 Frequencies --    73.2542               104.2023               117.0975
 Red. masses --    11.9324                13.1178                12.3876
 Frc consts  --     0.0000                 0.0000                 0.0000
 IR Inten    --     1.4530                 3.6457                 0.1165
 Raman Activ --     0.0000                 0.0000                 0.0000
 Depolar     --     0.0000                 0.0000                 0.0000
 Atom AN      X      Y      Z        X      Y      Z        X      Y      Z
   1   6     0.02  -0.39   0.21     0.02   0.01   0.23     0.02   0.04  -0.27
   2   6     0.08  -0.09  -0.03    -0.02   0.01  -0.14     0.04  -0.00   0.03
   3   8     0.28   0.00  -0.25    -0.12   0.08  -0.61     0.06   0.03  -0.13
   4   8    -0.09   0.03  -0.00     0.03  -0.07   0.06     0.05  -0.08   0.47
   5   6    -0.05   0.18  -0.01     0.03  -0.03   0.10     0.04   0.01   0.16
   6   6    -0.04   0.13  -0.04    -0.01   0.23   0.28     0.29  -0.04   0.04
   7   8     0.01   0.35  -0.07     0.16  -0.29   0.30    -0.15   0.12   0.08
   8   7    -0.10   0.21   0.10    -0.02  -0.01  -0.13    -0.02   0.04   0.11
   9   6    -0.07   0.11   0.06    -0.01   0.00  -0.07    -0.08   0.03  -0.14
  10   6    -0.13   0.02   0.14    -0.02   0.00  -0.14    -0.12   0.01  -0.20
  11   6    -0.10  -0.11   0.12    -0.02   0.01  -0.13    -0.09  -0.03  -0.12
  12   6     0.01  -0.13  -0.00    -0.01   0.01  -0.01    -0.04  -0.04  -0.00
  13   8     0.06  -0.31  -0.05    -0.00   0.02   0.03     0.05  -0.10   0.38
  14   6     0.07  -0.04  -0.10     0.01   0.01   0.08    -0.05  -0.01  -0.18
  15   6     0.03   0.08  -0.06     0.00   0.00   0.04    -0.07   0.02  -0.25
  16   1     0.06  -0.15   0.12     0.01  -0.00   0.13    -0.01   0.02  -0.16
  17   1    -0.08  -0.16   0.05    -0.07  -0.02   0.07     0.08   0.04  -0.08
  18   1     0.02  -0.09   0.05     0.07   0.02   0.06    -0.06  -0.02  -0.07
  19   1     0.04   0.01  -0.05    -0.04   0.08   0.15     0.08  -0.01   0.02
  20   1    -0.07  -0.01  -0.01     0.02   0.14   0.05     0.14  -0.02   0.04
  21   1    -0.01   0.10   0.03    -0.00   0.03   0.07     0.08  -0.02  -0.05
  22   1     0.02   0.08  -0.04    -0.03  -0.04   0.08    -0.03   0.02   0.02
  23   1    -0.02   0.05  -0.01    -0.01  -0.02  -0.06    -0.03   0.00   0.06
  24   1    -0.06   0.01   0.06    -0.01   0.00  -0.06    -0.04   0.00  -0.07
  25   1    -0.04  -0.05   0.05    -0.01   0.00  -0.06    -0.03  -0.02  -0.03
  26   1    -0.00  -0.10   0.01    -0.00   0.01  -0.01     0.01  -0.03   0.13
  27   1     0.04  -0.02  -0.06     0.01   0.00   0.05    -0.01  -0.01  -0.06
  28   1     0.03   0.05  -0.04     0.00  -0.00   0.03    -0.02   0.01  -0.10
                      7                      8                      9
                        a                      a                      a 
 Frequencies --   154.5484               168.4341               189.7159
 Red. masses --    11.1352                 2.8130                11.3254
 Frc consts  --     0.0000                 0.0000                 0.0000
 IR Inten    --     3.3413                 0.5954                 0.0337
 Raman Activ --     0.0000                 0.0000                 0.0000
 Depolar     --     0.0000                 0.0000                 0.0000
 Atom AN      X      Y      Z        X      Y      Z        X      Y      Z
   1   6     0.00  -0.04   0.13     0.05   0.18   0.00    -0.19  -0.30  -0.09
   2   6     0.01   0.04  -0.02    -0.00  -0.01   0.00    -0.08   0.04   0.03
   3   8     0.06   0.04   0.11    -0.11  -0.03  -0.04     0.08   0.12  -0.08
   4   8    -0.02   0.12  -0.29     0.08  -0.08   0.03    -0.20   0.11   0.23
   5   6    -0.02  -0.01   0.05     0.05  -0.03  -0.01    -0.14   0.03   0.05
   6   6    -0.33  -0.15   0.09     0.18   0.05  -0.01    -0.11   0.06   0.06
   7   8     0.23   0.06   0.09     0.06  -0.05  -0.02    -0.39  -0.00   0.05
   8   7     0.12  -0.05   0.30    -0.05   0.00  -0.07     0.10  -0.06  -0.08
   9   6     0.01  -0.03  -0.08    -0.04   0.01   0.01     0.15  -0.16  -0.04
  10   6    -0.01  -0.02  -0.26    -0.05  -0.00   0.04     0.23  -0.07  -0.04
  11   6    -0.03   0.01  -0.30    -0.04  -0.02   0.06     0.22   0.04  -0.03
  12   6    -0.01   0.01  -0.07    -0.04  -0.02   0.02     0.14   0.06  -0.02
  13   8     0.06   0.06   0.35    -0.06  -0.04  -0.05     0.10   0.27  -0.04
  14   6    -0.03  -0.00  -0.11    -0.03  -0.00   0.02     0.07  -0.03   0.01
  15   6    -0.03  -0.03  -0.14    -0.03   0.01   0.03     0.11  -0.14  -0.01
  16   1     0.02  -0.02   0.08    -0.02   0.08   0.00     0.02  -0.14  -0.06
  17   1    -0.05  -0.03   0.04     0.04   0.07   0.00    -0.08  -0.10  -0.03
  18   1     0.03   0.00   0.03     0.04   0.06  -0.00    -0.13  -0.11  -0.02
  19   1    -0.00  -0.08  -0.08     0.48  -0.16  -0.23     0.10  -0.04  -0.05
  20   1    -0.24  -0.13   0.02    -0.38  -0.26  -0.01    -0.17  -0.06   0.01
  21   1    -0.09   0.06   0.14     0.07   0.49   0.24    -0.03   0.17   0.09
  22   1     0.05   0.02  -0.01    -0.01  -0.00  -0.02    -0.12   0.01   0.03
  23   1     0.02   0.03   0.22    -0.02  -0.02  -0.05     0.06   0.01  -0.02
  24   1    -0.00  -0.01  -0.07    -0.02  -0.00   0.01     0.09  -0.03  -0.01
  25   1    -0.01   0.01  -0.11    -0.01  -0.01   0.02     0.08   0.03  -0.01
  26   1     0.02   0.02   0.09    -0.02  -0.01  -0.01     0.05   0.09  -0.02
  27   1    -0.01   0.00  -0.01    -0.00  -0.00   0.00    -0.01  -0.00   0.01
  28   1    -0.01  -0.01  -0.03    -0.01   0.00   0.01     0.02  -0.05   0.00
                     10                     11                     12
                        a                      a                      a 
 Frequencies --   245.0739               279.4422               328.1248
 Red. masses --    13.5599                12.0989                10.3058
 Frc consts  --     0.0000                 0.0000                 0.0000
 IR Inten    --     1.3887                27.5520                 0.3545
 Raman Activ --     0.0000                 0.0000                 0.0000
 Depolar     --     0.0000                 0.0000                 0.0000
 Atom AN      X      Y      Z        X      Y      Z        X      Y      Z
   1   6     0.17   0.06   0.02    -0.03   0.07   0.02     0.31   0.23   0.01
   2   6     0.19   0.22  -0.00    -0.08  -0.14  -0.03     0.16  -0.21   0.04
   3   8     0.44   0.32  -0.01    -0.23  -0.21   0.01     0.16  -0.22  -0.07
   4   8     0.12   0.28  -0.02    -0.06  -0.15  -0.09     0.03  -0.16   0.21
   5   6     0.03   0.01  -0.04    -0.03   0.11   0.01    -0.04   0.02   0.01
   6   6     0.03   0.06  -0.01     0.15   0.33   0.05    -0.42  -0.01   0.14
   7   8    -0.01  -0.02  -0.04     0.14   0.41  -0.10    -0.24   0.18  -0.11
   8   7     0.00  -0.06  -0.09    -0.03   0.10   0.17    -0.03   0.02  -0.10
   9   6    -0.00  -0.21  -0.03     0.08  -0.22   0.08    -0.02   0.00  -0.15
  10   6    -0.03  -0.23   0.00     0.10  -0.19  -0.00     0.00   0.01  -0.03
  11   6    -0.05  -0.15   0.03     0.08  -0.10  -0.10     0.02   0.00   0.00
  12   6    -0.21  -0.12   0.06    -0.01  -0.08  -0.05     0.05   0.00   0.06
  13   8    -0.34   0.08   0.04    -0.11   0.24   0.09     0.01   0.05  -0.06
  14   6    -0.21  -0.13   0.07    -0.06  -0.15  -0.05     0.05  -0.00   0.14
  15   6    -0.15  -0.19   0.03     0.01  -0.22   0.02     0.01   0.00  -0.10
  16   1     0.07   0.00   0.01    -0.05   0.05   0.02    -0.04   0.16   0.01
  17   1     0.03   0.01   0.01     0.01   0.03   0.01     0.19   0.10  -0.01
  18   1     0.04   0.01   0.01     0.03   0.03   0.00     0.17   0.10  -0.01
  19   1     0.01   0.02   0.02     0.04   0.10   0.11    -0.18   0.02   0.01
  20   1     0.02   0.04  -0.01     0.09   0.16  -0.01    -0.20   0.03  -0.01
  21   1     0.01   0.02  -0.01     0.04   0.10  -0.03    -0.13  -0.06   0.17
  22   1    -0.01  -0.00  -0.00     0.10   0.07  -0.07    -0.02   0.03  -0.04
  23   1     0.02  -0.02  -0.08     0.05   0.02  -0.10    -0.01  -0.01  -0.06
  24   1    -0.01  -0.07  -0.01     0.06  -0.06  -0.00     0.00   0.00   0.02
  25   1     0.01  -0.02   0.01     0.03  -0.02  -0.04     0.00  -0.00   0.00
  26   1    -0.05   0.05  -0.00     0.03   0.11   0.02     0.00   0.02  -0.06
  27   1    -0.06  -0.04   0.02    -0.03  -0.04  -0.02     0.02  -0.00   0.08
  28   1    -0.07  -0.08   0.02    -0.01  -0.08   0.02     0.00   0.00  -0.04
                     13                     14                     15
                        a                      a                      a 
 Frequencies --   338.2599               365.0245               378.6314
 Red. masses --    11.5150                 8.1243                 8.3579
 Frc consts  --     0.0000                 0.0000                 0.0000
 IR Inten    --     1.7943                51.6180                25.5891
 Raman Activ --     0.0000                 0.0000                 0.0000
 Depolar     --     0.0000                 0.0000                 0.0000
 Atom AN      X      Y      Z        X      Y      Z        X      Y      Z
   1   6     0.14   0.07   0.01     0.08   0.03   0.02    -0.02  -0.02  -0.00
   2   6     0.08  -0.04  -0.05     0.03  -0.05  -0.10    -0.01   0.02  -0.02
   3   8     0.10  -0.06  -0.03     0.03  -0.08  -0.01    -0.01   0.02   0.01
   4   8     0.02  -0.01  -0.08    -0.01   0.01  -0.20     0.02   0.01  -0.06
   5   6    -0.02  -0.04  -0.07    -0.04  -0.05  -0.06     0.01  -0.05  -0.03
   6   6    -0.03   0.11   0.01     0.12   0.24   0.07     0.08   0.09   0.03
   7   8    -0.33  -0.19  -0.11    -0.30  -0.08  -0.10    -0.08  -0.02  -0.08
   8   7    -0.01  -0.04   0.04     0.21  -0.15   0.25     0.06  -0.07   0.08
   9   6     0.08   0.03   0.40    -0.01   0.00  -0.11     0.03  -0.05   0.07
  10   6     0.03   0.04   0.18    -0.03  -0.00  -0.19     0.12  -0.01   0.36
  11   6    -0.06   0.05  -0.22     0.03   0.03   0.24    -0.08   0.11  -0.33
  12   6    -0.06   0.05  -0.29    -0.01   0.03   0.16    -0.04   0.11   0.05
  13   8     0.09  -0.07   0.24    -0.02  -0.08  -0.13     0.08  -0.18   0.10
  14   6    -0.07   0.05  -0.34    -0.03   0.04   0.01    -0.01   0.09   0.30
  15   6     0.05   0.03   0.28    -0.03   0.01  -0.01    -0.12  -0.03  -0.36
  16   1     0.00   0.05   0.02    -0.00   0.03   0.03     0.01  -0.02   0.00
  17   1     0.05   0.03   0.01     0.01   0.02   0.02    -0.02  -0.01   0.00
  18   1     0.08   0.03   0.00     0.07   0.01   0.01    -0.01  -0.01   0.00
  19   1     0.00   0.03   0.05     0.09   0.05   0.15     0.04   0.02   0.06
  20   1    -0.02   0.08  -0.03     0.06   0.15  -0.02     0.03   0.07  -0.02
  21   1    -0.01   0.05   0.02     0.04   0.13  -0.02     0.02   0.05   0.00
  22   1    -0.15  -0.02   0.01    -0.14   0.01  -0.01    -0.04   0.00  -0.02
  23   1     0.03  -0.03  -0.10     0.00   0.11   0.54     0.02  -0.00   0.04
  24   1     0.00   0.01   0.06    -0.02   0.00  -0.11     0.07  -0.01   0.19
  25   1    -0.02   0.01  -0.09     0.03   0.02   0.11    -0.03   0.05  -0.21
  26   1     0.02  -0.04   0.15    -0.02  -0.04   0.01    -0.12  -0.09  -0.38
  27   1    -0.04   0.02  -0.15    -0.02   0.01  -0.03    -0.02   0.03   0.17
  28   1     0.02   0.01   0.12    -0.01   0.00   0.01    -0.07  -0.03  -0.22
                     16                     17                     18
                        a                      a                      a 
 Frequencies --   392.2262               410.6123               415.7713
 Red. masses --    10.4862                 4.1516                10.1289
 Frc consts  --     0.0000                 0.0000                 0.0000
 IR Inten    --     7.6951               135.6187                 6.3669
 Raman Activ --     0.0000                 0.0000                 0.0000
 Depolar     --     0.0000                 0.0000                 0.0000
 Atom AN      X      Y      Z        X      Y      Z        X      Y      Z
   1   6    -0.06  -0.02  -0.01     0.01   0.02   0.01    -0.10  -0.11  -0.04
   2   6    -0.03   0.03   0.07    -0.00  -0.02  -0.01    -0.01   0.08   0.17
   3   8    -0.03   0.05   0.01     0.03  -0.01  -0.00    -0.17   0.08   0.01
   4   8     0.03  -0.02   0.13    -0.03   0.00  -0.01     0.18  -0.07   0.24
   5   6     0.03  -0.05  -0.02    -0.03   0.02   0.04     0.18  -0.11  -0.17
   6   6    -0.08   0.06   0.08    -0.02  -0.03  -0.01    -0.13   0.12   0.10
   7   8     0.16   0.20  -0.12     0.02   0.03   0.05     0.17   0.05  -0.29
   8   7     0.05  -0.10  -0.09    -0.04   0.02  -0.00     0.18  -0.14  -0.21
   9   6     0.07  -0.18  -0.07     0.01  -0.05   0.04     0.05   0.14  -0.01
  10   6     0.12  -0.09  -0.13    -0.01  -0.02  -0.21    -0.03   0.02   0.09
  11   6     0.00   0.27   0.07     0.05   0.06   0.20    -0.02  -0.15  -0.02
  12   6    -0.13   0.29  -0.02     0.01   0.06   0.07    -0.09  -0.14  -0.10
  13   8     0.12  -0.43  -0.08     0.09  -0.06   0.20    -0.15   0.07   0.15
  14   6    -0.20   0.23  -0.02    -0.08   0.03  -0.25     0.02  -0.03  -0.09
  15   6    -0.06  -0.14   0.13     0.02  -0.05   0.15     0.01   0.15   0.11
  16   1    -0.00  -0.02  -0.02    -0.01   0.02   0.01     0.04  -0.09  -0.06
  17   1    -0.01  -0.02  -0.01     0.01   0.01   0.00    -0.02  -0.06  -0.04
  18   1    -0.06  -0.01  -0.01     0.02   0.01   0.00    -0.15  -0.04  -0.02
  19   1    -0.03   0.02   0.05    -0.01  -0.01  -0.02    -0.08   0.05   0.09
  20   1    -0.06   0.06  -0.02     0.00  -0.03   0.01    -0.13   0.14  -0.07
  21   1    -0.02   0.01   0.07    -0.01  -0.01  -0.02    -0.04   0.00   0.17
  22   1     0.11   0.02  -0.08     0.02  -0.00   0.01     0.03   0.02  -0.12
  23   1     0.03  -0.04  -0.09     0.01  -0.02  -0.10    -0.01   0.05   0.31
  24   1     0.10  -0.04  -0.04    -0.00  -0.01  -0.13    -0.06   0.02   0.07
  25   1     0.06   0.14   0.05     0.03   0.03   0.09    -0.01  -0.05   0.02
  26   1    -0.06  -0.23   0.24    -0.17  -0.02  -0.80    -0.03   0.06  -0.16
  27   1    -0.14   0.08   0.01    -0.06   0.01  -0.15     0.06  -0.02  -0.03
  28   1    -0.06  -0.10   0.10     0.00  -0.02   0.06     0.02   0.05   0.06
                     19                     20                     21
                        a                      a                      a 
 Frequencies --   446.9264               476.9350               491.3639
 Red. masses --     6.3253                11.4223                 5.9559
 Frc consts  --     0.0000                 0.0000                 0.0000
 IR Inten    --    40.3192                12.5198               173.2955
 Raman Activ --     0.0000                 0.0000                 0.0000
 Depolar     --     0.0000                 0.0000                 0.0000
 Atom AN      X      Y      Z        X      Y      Z        X      Y      Z
   1   6    -0.01   0.11   0.03     0.10  -0.06  -0.01     0.02  -0.05   0.00
   2   6    -0.06  -0.09  -0.04     0.07  -0.07  -0.05     0.03   0.04  -0.14
   3   8     0.19  -0.00  -0.04    -0.20  -0.20  -0.01    -0.14  -0.04   0.01
   4   8    -0.21   0.01   0.12     0.00   0.04  -0.07     0.06   0.03   0.06
   5   6    -0.20   0.06  -0.04     0.03   0.27   0.10     0.08   0.03  -0.02
   6   6     0.02   0.02  -0.15     0.00  -0.07  -0.09    -0.04   0.01  -0.02
   7   8     0.08   0.02   0.11    -0.09   0.04   0.27    -0.23  -0.01  -0.07
   8   7    -0.05  -0.06  -0.27     0.26   0.19  -0.20     0.14   0.03   0.04
   9   6    -0.09  -0.06  -0.06     0.25   0.03  -0.17     0.18   0.07   0.22
  10   6     0.04  -0.01   0.18     0.13  -0.16   0.07     0.02  -0.02  -0.11
  11   6    -0.01   0.04  -0.05     0.04  -0.07  -0.01     0.03  -0.06  -0.05
  12   6     0.01   0.03  -0.21    -0.26  -0.02  -0.10    -0.05  -0.04   0.30
  13   8     0.11   0.01   0.08    -0.29  -0.13   0.12    -0.18  -0.06  -0.06
  14   6    -0.02  -0.05  -0.02    -0.03   0.18   0.02    -0.00   0.08  -0.04
  15   6     0.01  -0.08   0.10     0.05   0.09   0.04     0.00   0.10  -0.07
  16   1    -0.08   0.09   0.03     0.03  -0.02  -0.00     0.05  -0.05   0.02
  17   1     0.03   0.06   0.02     0.02  -0.02  -0.00    -0.07  -0.02   0.03
  18   1     0.08   0.05   0.01     0.04  -0.02  -0.00     0.03  -0.04   0.02
  19   1     0.04  -0.01  -0.05    -0.03  -0.01  -0.16    -0.03   0.01  -0.01
  20   1     0.05  -0.04   0.00     0.03  -0.13   0.06    -0.06   0.01  -0.02
  21   1     0.01   0.04  -0.11    -0.00  -0.07  -0.05    -0.01  -0.00   0.06
  22   1     0.45  -0.19   0.19    -0.21   0.09   0.06     0.57  -0.28   0.30
  23   1    -0.05   0.16   0.45     0.08   0.12   0.09     0.06  -0.02  -0.12
  24   1     0.06  -0.01   0.10     0.02  -0.04   0.07    -0.04   0.01  -0.13
  25   1    -0.00   0.00   0.03     0.07   0.03   0.03     0.00   0.00  -0.12
  26   1     0.01  -0.00  -0.02    -0.09  -0.04  -0.00    -0.03  -0.01   0.05
  27   1    -0.02  -0.01   0.05     0.04   0.04   0.05     0.02   0.01  -0.13
  28   1     0.02  -0.01   0.07    -0.02  -0.02   0.07    -0.03   0.01  -0.13
                     22                     23                     24
                        a                      a                      a 
 Frequencies --   501.1233               535.7768               562.3135
 Red. masses --     9.0541                11.1506                11.4866
 Frc consts  --     0.0000                 0.0000                 0.0000
 IR Inten    --    59.1651                34.5757                16.0189
 Raman Activ --     0.0000                 0.0000                 0.0000
 Depolar     --     0.0000                 0.0000                 0.0000
 Atom AN      X      Y      Z        X      Y      Z        X      Y      Z
   1   6     0.01  -0.04   0.00     0.05  -0.03  -0.01     0.28  -0.14  -0.04
   2   6     0.03   0.11  -0.24     0.06  -0.04   0.31     0.23   0.15  -0.04
   3   8    -0.09   0.02   0.08    -0.08   0.01  -0.13    -0.39  -0.05   0.03
   4   8     0.11   0.03  -0.13     0.03   0.01   0.11     0.29   0.11  -0.01
   5   6     0.11  -0.12   0.11     0.01   0.12  -0.22     0.05   0.12   0.02
   6   6     0.10  -0.09   0.20    -0.12   0.18  -0.31    -0.03   0.00  -0.01
   7   8    -0.26   0.13  -0.08     0.05  -0.34  -0.06    -0.08   0.02   0.04
   8   7    -0.01  -0.04   0.14    -0.01   0.19   0.47    -0.18   0.11  -0.14
   9   6    -0.11   0.03  -0.38    -0.02  -0.05  -0.17    -0.17  -0.15   0.08
  10   6    -0.02   0.06   0.06    -0.01  -0.06  -0.02    -0.13  -0.09   0.05
  11   6     0.02  -0.01   0.10    -0.01   0.03   0.08    -0.18   0.12   0.00
  12   6    -0.05  -0.02  -0.38    -0.04   0.03  -0.16     0.14   0.09   0.04
  13   8     0.04   0.01   0.11    -0.01   0.00   0.04     0.23   0.10  -0.06
  14   6     0.03  -0.02   0.07     0.02   0.04   0.06    -0.04  -0.10  -0.02
  15   6    -0.00   0.04   0.06     0.05  -0.06  -0.04     0.01  -0.24   0.02
  16   1     0.07  -0.06   0.05     0.01  -0.00  -0.08     0.21  -0.14  -0.03
  17   1    -0.13  -0.01   0.05     0.14  -0.03  -0.07    -0.01  -0.08  -0.01
  18   1     0.05  -0.05   0.03    -0.12   0.02  -0.04    -0.01  -0.08  -0.00
  19   1     0.03  -0.02   0.09    -0.05   0.05  -0.09    -0.05   0.02  -0.07
  20   1     0.01   0.01   0.03    -0.06   0.06  -0.11    -0.03  -0.04   0.01
  21   1     0.03  -0.01   0.09    -0.04   0.04  -0.05    -0.01  -0.04   0.03
  22   1     0.23  -0.10   0.08     0.08  -0.11   0.16    -0.01   0.00   0.06
  23   1    -0.03  -0.12  -0.18     0.04   0.01  -0.10    -0.07   0.10   0.21
  24   1     0.03   0.01   0.18     0.04  -0.03   0.07     0.02  -0.03  -0.02
  25   1     0.03  -0.02   0.20     0.02   0.02   0.11    -0.07   0.01  -0.03
  26   1     0.00   0.01  -0.06    -0.01   0.00  -0.03     0.05   0.02  -0.00
  27   1     0.05  -0.01   0.19     0.01   0.01   0.11    -0.10  -0.01  -0.02
  28   1     0.04   0.02   0.19     0.02  -0.03   0.08     0.00  -0.06  -0.03
                     25                     26                     27
                        a                      a                      a 
 Frequencies --   597.3374               613.9500               660.6094
 Red. masses --    10.7317                11.3239                11.4737
 Frc consts  --     0.0000                 0.0000                 0.0000
 IR Inten    --    35.2802                10.9156                 0.6980
 Raman Activ --     0.0000                 0.0000                 0.0000
 Depolar     --     0.0000                 0.0000                 0.0000
 Atom AN      X      Y      Z        X      Y      Z        X      Y      Z
   1   6     0.10  -0.04   0.04    -0.09   0.02   0.03    -0.03   0.01   0.00
   2   6     0.09  -0.09   0.53    -0.05  -0.06   0.20    -0.01  -0.00   0.00
   3   8    -0.11   0.03  -0.24     0.08   0.06  -0.10     0.02   0.01  -0.00
   4   8    -0.01   0.16  -0.36    -0.02  -0.02  -0.19     0.01  -0.02  -0.01
   5   6    -0.07  -0.04   0.11     0.03  -0.09   0.05     0.04   0.01  -0.01
   6   6     0.06  -0.07   0.13     0.08  -0.10   0.15     0.01   0.00  -0.01
   7   8    -0.13   0.15   0.06    -0.08   0.05  -0.04    -0.02  -0.02  -0.01
   8   7     0.02  -0.11  -0.10     0.01  -0.02  -0.06     0.01   0.05   0.11
   9   6    -0.02   0.06   0.01     0.04  -0.07  -0.02    -0.10   0.00  -0.51
  10   6     0.09   0.17  -0.01    -0.23  -0.33   0.07     0.08   0.01   0.30
  11   6     0.15  -0.05  -0.04    -0.37   0.08   0.06    -0.03  -0.00  -0.31
  12   6     0.02  -0.04   0.00    -0.03   0.07   0.03     0.10  -0.01   0.51
  13   8     0.03  -0.05  -0.01    -0.08   0.12   0.01    -0.02  -0.01  -0.07
  14   6    -0.10  -0.13   0.01     0.27   0.33  -0.07    -0.08  -0.02  -0.30
  15   6    -0.17   0.08   0.05     0.42  -0.09  -0.07     0.04   0.01   0.30
  16   1    -0.00   0.01  -0.13    -0.06   0.03  -0.04    -0.01   0.01   0.00
  17   1     0.29  -0.06  -0.12     0.09  -0.01  -0.04    -0.01   0.00   0.00
  18   1    -0.21   0.06  -0.07    -0.10   0.04  -0.02    -0.01   0.00   0.00
  19   1     0.06  -0.04   0.06     0.03  -0.03   0.07    -0.01   0.00  -0.01
  20   1     0.06  -0.04   0.06     0.03  -0.01   0.04    -0.00   0.01  -0.01
  21   1     0.02   0.02  -0.03     0.02  -0.02   0.04     0.00  -0.01   0.01
  22   1     0.14  -0.04   0.03     0.08  -0.03   0.00    -0.01  -0.00   0.02
  23   1    -0.01  -0.04  -0.03    -0.01  -0.01   0.01    -0.02  -0.02  -0.02
  24   1     0.00   0.05  -0.01    -0.04  -0.10  -0.00     0.03   0.00   0.11
  25   1     0.03  -0.03  -0.02    -0.08   0.05   0.00    -0.01   0.00  -0.11
  26   1    -0.00  -0.02   0.01     0.02   0.06  -0.00    -0.00  -0.00   0.00
  27   1    -0.01  -0.04  -0.00     0.06   0.09  -0.03    -0.02  -0.01  -0.11
  28   1    -0.04   0.04   0.00     0.09  -0.05  -0.02     0.02   0.00   0.12
                     28                     29                     30
                        a                      a                      a 
 Frequencies --   703.2635               772.1877               800.2257
 Red. masses --    10.7663                11.9132                 5.1129
 Frc consts  --     0.0000                 0.0000                 0.0000
 IR Inten    --    28.7156                13.7464                54.2731
 Raman Activ --     0.0000                 0.0000                 0.0000
 Depolar     --     0.0000                 0.0000                 0.0000
 Atom AN      X      Y      Z        X      Y      Z        X      Y      Z
   1   6     0.36  -0.09  -0.05    -0.03  -0.01  -0.00     0.01  -0.01   0.00
   2   6     0.12   0.06  -0.06    -0.02  -0.06  -0.01    -0.00  -0.01  -0.00
   3   8    -0.23  -0.06   0.04    -0.01  -0.09  -0.01    -0.01  -0.02  -0.00
   4   8    -0.20   0.27   0.18    -0.13   0.12   0.05    -0.05   0.05   0.01
   5   6    -0.39  -0.18   0.03     0.12   0.04   0.00     0.01   0.01  -0.02
   6   6    -0.08   0.03  -0.08    -0.01   0.08  -0.13     0.04  -0.00   0.01
   7   8     0.18   0.02   0.01     0.01   0.07   0.11     0.01  -0.01  -0.01
   8   7     0.01  -0.30   0.06     0.44  -0.19  -0.02     0.01  -0.02  -0.07
   9   6    -0.01   0.02  -0.06     0.14   0.06  -0.06     0.06   0.01   0.27
  10   6    -0.01   0.03   0.04    -0.24  -0.21   0.08    -0.06   0.01  -0.22
  11   6    -0.03  -0.01  -0.01    -0.31  -0.03   0.07    -0.08   0.01  -0.23
  12   6    -0.03  -0.02   0.03     0.07   0.01  -0.03     0.06  -0.01   0.28
  13   8    -0.11  -0.01   0.02     0.38   0.15  -0.07    -0.00   0.01  -0.06
  14   6     0.14   0.14  -0.05    -0.16  -0.09   0.03    -0.04  -0.01  -0.19
  15   6     0.14   0.08  -0.01    -0.26   0.14   0.05    -0.04  -0.00  -0.21
  16   1     0.13  -0.05  -0.00    -0.06   0.03   0.01    -0.01   0.01   0.00
  17   1     0.06  -0.02   0.00     0.02   0.01   0.00     0.01   0.00  -0.00
  18   1     0.12  -0.04  -0.00     0.03   0.01  -0.00     0.01   0.00  -0.00
  19   1     0.11  -0.04   0.12    -0.01   0.03  -0.05     0.00   0.00  -0.00
  20   1     0.07   0.05  -0.01    -0.01   0.02  -0.04     0.01  -0.00   0.00
  21   1    -0.01   0.16  -0.20    -0.00   0.01  -0.02     0.01  -0.02   0.03
  22   1     0.04   0.01  -0.19    -0.00   0.02   0.03    -0.00   0.00  -0.01
  23   1     0.02  -0.11  -0.12     0.13  -0.10  -0.16     0.02   0.02   0.00
  24   1    -0.01   0.01  -0.00    -0.14  -0.04  -0.02     0.09  -0.02   0.41
  25   1    -0.00   0.00  -0.00    -0.13  -0.05   0.01     0.08  -0.01   0.43
  26   1    -0.01   0.01  -0.00     0.10   0.04  -0.02     0.00   0.00  -0.02
  27   1     0.08   0.03  -0.01    -0.06  -0.02   0.02     0.07  -0.00   0.34
  28   1     0.05   0.03   0.00    -0.10   0.00   0.03     0.07  -0.00   0.37
                     31                     32                     33
                        a                      a                      a 
 Frequencies --   832.2634               853.4442               861.3926
 Red. masses --    13.0004                 5.9772                 8.8174
 Frc consts  --     0.0000                 0.0000                 0.0000
 IR Inten    --     5.8021                23.0003                40.2839
 Raman Activ --     0.0000                 0.0000                 0.0000
 Depolar     --     0.0000                 0.0000                 0.0000
 Atom AN      X      Y      Z        X      Y      Z        X      Y      Z
   1   6     0.09  -0.08  -0.02     0.01   0.02   0.00     0.02   0.04  -0.00
   2   6    -0.02  -0.07  -0.02    -0.00   0.03   0.01    -0.01   0.04   0.01
   3   8    -0.07  -0.11  -0.01     0.02   0.06   0.01     0.02   0.09   0.02
   4   8    -0.39   0.37   0.10     0.14  -0.13  -0.02     0.19  -0.19  -0.03
   5   6     0.10   0.12  -0.08    -0.20  -0.00   0.03    -0.30  -0.02   0.04
   6   6     0.18  -0.19   0.35    -0.05  -0.04   0.08    -0.06  -0.04   0.07
   7   8     0.13  -0.23  -0.38     0.01  -0.05  -0.08     0.01  -0.05  -0.07
   8   7    -0.05   0.26   0.03    -0.09   0.12   0.01    -0.11   0.14   0.03
   9   6     0.04   0.01  -0.03     0.07   0.02   0.02     0.09   0.02  -0.02
  10   6     0.01  -0.10  -0.01     0.06  -0.20   0.16     0.00  -0.31  -0.07
  11   6     0.04  -0.04   0.01     0.11  -0.14   0.14     0.05  -0.20  -0.20
  12   6    -0.01   0.01  -0.02    -0.02   0.00   0.04    -0.04  -0.01  -0.00
  13   8     0.08   0.02  -0.01     0.15   0.05  -0.04     0.24   0.07  -0.05
  14   6    -0.06  -0.00   0.04    -0.09   0.13  -0.17    -0.06   0.21   0.13
  15   6    -0.06   0.02   0.03    -0.15   0.14  -0.21    -0.14   0.24   0.17
  16   1    -0.07   0.05   0.02     0.05  -0.03  -0.01     0.07  -0.04  -0.01
  17   1     0.09   0.02   0.00    -0.03  -0.01  -0.00    -0.04  -0.01  -0.00
  18   1     0.12   0.01  -0.01    -0.03  -0.01   0.00    -0.05  -0.01   0.01
  19   1     0.01  -0.04   0.08     0.04  -0.03   0.05     0.05  -0.04   0.06
  20   1     0.02  -0.06   0.09     0.04  -0.03   0.06     0.06  -0.04   0.06
  21   1     0.05  -0.11   0.18    -0.01   0.04  -0.08    -0.01   0.06  -0.10
  22   1     0.00  -0.04  -0.04     0.03  -0.02  -0.04     0.03  -0.03  -0.06
  23   1    -0.00   0.10   0.04    -0.01   0.06   0.02    -0.01   0.07   0.02
  24   1    -0.01  -0.02   0.01    -0.11  -0.03  -0.32    -0.02  -0.08   0.13
  25   1     0.01   0.00  -0.04    -0.02  -0.01  -0.33     0.14  -0.03   0.34
  26   1     0.01  -0.00  -0.00     0.03   0.01  -0.01     0.05   0.02  -0.01
  27   1    -0.04   0.00  -0.04     0.08   0.03   0.35    -0.01   0.05  -0.20
  28   1    -0.04  -0.01  -0.02     0.02   0.01   0.45    -0.15   0.02  -0.26
                     34                     35                     36
                        a                      a                      a 
 Frequencies --   891.2497               908.6372               915.0273
 Red. masses --     2.8805                 4.1204                 9.8386
 Frc consts  --     0.0000                 0.0000                 0.0000
 IR Inten    --     0.7175                 0.3925                29.5906
 Raman Activ --     0.0000                 0.0000                 0.0000
 Depolar     --     0.0000                 0.0000                 0.0000
 Atom AN      X      Y      Z        X      Y      Z        X      Y      Z
   1   6     0.02   0.00   0.00     0.04  -0.01   0.00     0.14  -0.06   0.00
   2   6    -0.00   0.01   0.00    -0.01   0.02   0.00    -0.03   0.06  -0.00
   3   8    -0.00   0.03   0.01    -0.01   0.02   0.01    -0.05   0.06   0.02
   4   8     0.01  -0.04  -0.01    -0.05  -0.01  -0.01    -0.28   0.01  -0.03
   5   6    -0.04  -0.03  -0.01     0.05  -0.04  -0.02     0.35  -0.17  -0.09
   6   6     0.02   0.00  -0.04     0.03   0.00  -0.05     0.10  -0.01  -0.20
   7   8    -0.01   0.02   0.04    -0.01   0.03   0.06    -0.04   0.15   0.24
   8   7    -0.04  -0.01  -0.01    -0.06  -0.02   0.01    -0.27  -0.09   0.02
   9   6     0.00  -0.00  -0.02    -0.01  -0.01   0.01    -0.09  -0.02   0.04
  10   6    -0.05  -0.06  -0.24    -0.03  -0.07  -0.19     0.07  -0.17   0.06
  11   6     0.05  -0.06   0.19     0.08  -0.08   0.18     0.18  -0.21  -0.10
  12   6    -0.01  -0.01   0.02    -0.02  -0.00   0.01    -0.05  -0.01   0.01
  13   8     0.06   0.02   0.00     0.05   0.02  -0.02     0.10   0.03  -0.02
  14   6     0.02   0.07   0.15    -0.06   0.09  -0.29     0.02   0.27   0.04
  15   6    -0.06   0.07  -0.09     0.02   0.06   0.26    -0.05   0.10  -0.05
  16   1     0.02  -0.01  -0.00     0.01  -0.00  -0.00     0.02   0.00  -0.01
  17   1     0.00  -0.00  -0.00     0.02  -0.00  -0.00     0.09  -0.01  -0.01
  18   1    -0.01  -0.00   0.00     0.01  -0.00  -0.00     0.06   0.00  -0.01
  19   1     0.01  -0.00   0.01    -0.01   0.01   0.01    -0.07   0.04   0.02
  20   1     0.01   0.01  -0.02    -0.02   0.04  -0.05    -0.13   0.16  -0.21
  21   1     0.00  -0.00   0.01     0.01  -0.01   0.04     0.02  -0.06   0.19
  22   1    -0.00   0.00  -0.01    -0.01   0.01   0.02    -0.05   0.05   0.10
  23   1    -0.01  -0.00   0.01    -0.04  -0.02   0.02    -0.17  -0.09   0.09
  24   1     0.13  -0.05   0.57     0.07  -0.04   0.30    -0.03  -0.04  -0.16
  25   1    -0.09  -0.01  -0.46    -0.04  -0.01  -0.30     0.11  -0.02   0.09
  26   1     0.02   0.01   0.00     0.02   0.00   0.01     0.03   0.01  -0.01
  27   1    -0.06   0.01  -0.41     0.12   0.02   0.53     0.02   0.07  -0.08
  28   1     0.03   0.00   0.30    -0.11   0.01  -0.47    -0.03  -0.00   0.10
                     37                     38                     39
                        a                      a                      a 
 Frequencies --   965.5939               990.1632              1003.1796
 Red. masses --    12.9057                 6.4767                 6.4931
 Frc consts  --     0.0000                 0.0000                 0.0000
 IR Inten    --    15.8291                 4.7359                78.8005
 Raman Activ --     0.0000                 0.0000                 0.0000
 Depolar     --     0.0000                 0.0000                 0.0000
 Atom AN      X      Y      Z        X      Y      Z        X      Y      Z
   1   6    -0.40   0.05  -0.01     0.08  -0.05   0.02     0.01   0.40  -0.17
   2   6     0.24  -0.14   0.00    -0.08   0.02  -0.02     0.21  -0.05   0.27
   3   8     0.04  -0.37  -0.09    -0.01   0.10   0.02     0.07  -0.14  -0.09
   4   8     0.33   0.49   0.07    -0.06  -0.08  -0.03    -0.30  -0.06  -0.04
   5   6     0.02   0.01   0.09     0.04   0.12   0.17     0.07   0.04  -0.04
   6   6    -0.04   0.05  -0.07     0.06   0.38   0.10     0.02   0.02   0.04
   7   8    -0.00  -0.01   0.01     0.01  -0.07  -0.17     0.01  -0.01  -0.03
   8   7    -0.14  -0.11   0.01    -0.01  -0.29   0.04    -0.00  -0.06   0.01
   9   6    -0.12  -0.04   0.03    -0.10  -0.05   0.01    -0.00  -0.00  -0.00
  10   6     0.01  -0.01  -0.00    -0.02   0.09   0.01    -0.00   0.01   0.00
  11   6     0.12  -0.15  -0.03     0.08  -0.16  -0.02     0.00  -0.01  -0.00
  12   6    -0.04  -0.01   0.01    -0.04  -0.02   0.01     0.00  -0.00  -0.00
  13   8     0.05   0.02  -0.01     0.05   0.01  -0.01     0.00  -0.00  -0.00
  14   6     0.01   0.20  -0.00     0.01   0.21  -0.00     0.00   0.02  -0.00
  15   6     0.01  -0.01  -0.00     0.03  -0.06  -0.01    -0.00  -0.00  -0.00
  16   1    -0.21   0.08   0.05    -0.00   0.00  -0.01     0.42  -0.20   0.05
  17   1    -0.14   0.05   0.04     0.08  -0.01  -0.01    -0.53   0.02   0.08
  18   1    -0.04   0.02   0.01     0.03   0.01  -0.01    -0.12  -0.13   0.09
  19   1    -0.00   0.01  -0.01    -0.17   0.17  -0.49    -0.01   0.01  -0.04
  20   1    -0.00   0.02  -0.02     0.05  -0.29   0.27     0.02  -0.04   0.04
  21   1    -0.01   0.02  -0.04     0.00  -0.18   0.00     0.01  -0.03   0.02
  22   1     0.01  -0.00  -0.06     0.04  -0.03  -0.10     0.00  -0.00   0.01
  23   1    -0.09  -0.08   0.03    -0.02  -0.09   0.01    -0.00  -0.02   0.00
  24   1    -0.01  -0.00   0.01    -0.07   0.04   0.01    -0.00   0.00  -0.00
  25   1     0.03  -0.04  -0.01    -0.01  -0.08   0.00    -0.00  -0.01   0.00
  26   1     0.02   0.01  -0.00     0.03   0.02  -0.00     0.01   0.01  -0.00
  27   1     0.00   0.06  -0.00    -0.02   0.06   0.00     0.00   0.00   0.00
  28   1    -0.02  -0.03   0.01    -0.03  -0.05   0.01    -0.00  -0.00   0.00
                     40                     41                     42
                        a                      a                      a 
 Frequencies --  1004.9406              1020.3856              1058.0888
 Red. masses --     6.0979                 7.7069                 5.8122
 Frc consts  --     0.0000                 0.0000                 0.0000
 IR Inten    --    44.9586                15.4084               125.3101
 Raman Activ --     0.0000                 0.0000                 0.0000
 Depolar     --     0.0000                 0.0000                 0.0000
 Atom AN      X      Y      Z        X      Y      Z        X      Y      Z
   1   6     0.03  -0.21  -0.39    -0.04  -0.00   0.00     0.00   0.04   0.01
   2   6    -0.14  -0.06   0.40     0.04  -0.00  -0.00    -0.04  -0.05  -0.00
   3   8    -0.07   0.18  -0.05     0.00  -0.04  -0.01     0.02  -0.02  -0.01
   4   8     0.14   0.01  -0.07     0.01   0.07  -0.00     0.11   0.06  -0.03
   5   6    -0.02  -0.02   0.01     0.06  -0.04   0.09    -0.48   0.00   0.00
   6   6    -0.00   0.01  -0.02     0.02   0.14  -0.01     0.38  -0.02  -0.09
   7   8    -0.02   0.01   0.02    -0.01  -0.02  -0.03    -0.00  -0.03   0.12
   8   7     0.01   0.02  -0.01    -0.16  -0.10   0.03     0.04  -0.02   0.03
   9   6     0.00   0.00   0.00     0.00  -0.00   0.01     0.04  -0.01  -0.03
  10   6     0.00  -0.00  -0.00     0.10  -0.37  -0.02    -0.00   0.02   0.01
  11   6    -0.00   0.00  -0.00    -0.08   0.31   0.02    -0.01   0.03   0.00
  12   6    -0.00   0.00   0.00     0.08   0.04  -0.02    -0.00   0.01  -0.00
  13   8    -0.00   0.00   0.00    -0.11  -0.04   0.02    -0.01   0.00   0.00
  14   6    -0.00  -0.01   0.00     0.11  -0.30  -0.02     0.00  -0.03  -0.00
  15   6     0.00  -0.00  -0.00    -0.14   0.34   0.02     0.00   0.01  -0.00
  16   1    -0.16   0.08   0.21    -0.03   0.01   0.00     0.05  -0.02  -0.01
  17   1    -0.22   0.15   0.15    -0.00   0.00   0.00    -0.03  -0.01  -0.00
  18   1     0.61  -0.12   0.03    -0.00   0.01  -0.00    -0.05  -0.00   0.00
  19   1    -0.01   0.01  -0.01    -0.07   0.06  -0.17    -0.19   0.11  -0.08
  20   1    -0.01   0.01  -0.01    -0.00  -0.08   0.06    -0.23   0.11  -0.21
  21   1    -0.00  -0.01   0.01    -0.00  -0.06   0.00     0.07  -0.27   0.48
  22   1     0.01  -0.00  -0.01     0.02  -0.01  -0.07     0.07  -0.03  -0.21
  23   1    -0.00   0.01   0.01    -0.10  -0.07   0.04     0.14   0.11  -0.04
  24   1     0.00  -0.00   0.00     0.24  -0.14  -0.06    -0.11   0.03  -0.01
  25   1     0.00   0.00  -0.00     0.13   0.25  -0.03     0.00   0.01   0.00
  26   1    -0.00  -0.00   0.00    -0.03  -0.02   0.01    -0.02  -0.01   0.00
  27   1    -0.00  -0.00   0.00     0.27  -0.13  -0.05     0.01  -0.01  -0.00
  28   1     0.00   0.00   0.00     0.10   0.25  -0.01     0.02   0.03  -0.00
                     43                     44                     45
                        a                      a                      a 
 Frequencies --  1109.1311              1130.6626              1150.4978
 Red. masses --     7.4992                 4.3173                 4.0350
 Frc consts  --     0.0000                 0.0000                 0.0000
 IR Inten    --    51.7494                63.6066               244.2946
 Raman Activ --     0.0000                 0.0000                 0.0000
 Depolar     --     0.0000                 0.0000                 0.0000
 Atom AN      X      Y      Z        X      Y      Z        X      Y      Z
   1   6    -0.02  -0.02  -0.01    -0.00  -0.00  -0.00    -0.04  -0.02  -0.00
   2   6    -0.00   0.01  -0.00    -0.01   0.00  -0.00     0.10   0.05  -0.00
   3   8    -0.01  -0.00   0.01    -0.00  -0.01   0.00    -0.01  -0.01   0.00
   4   8     0.10  -0.03   0.03     0.04  -0.01   0.02    -0.01  -0.01   0.01
   5   6    -0.17   0.33  -0.37    -0.07   0.13  -0.16    -0.02  -0.11  -0.28
   6   6     0.07  -0.10   0.16     0.01  -0.02   0.06     0.01   0.04   0.09
   7   8     0.09   0.12  -0.02     0.04   0.06  -0.01    -0.04   0.05   0.13
   8   7    -0.04  -0.33   0.03    -0.02  -0.18   0.02    -0.01   0.01   0.03
   9   6    -0.10  -0.16   0.00    -0.07   0.14   0.01     0.02   0.05  -0.00
  10   6     0.01   0.06   0.01    -0.05  -0.18   0.00    -0.04  -0.04   0.01
  11   6    -0.03   0.06   0.01     0.12  -0.15  -0.02     0.02   0.06  -0.00
  12   6     0.02  -0.08  -0.01    -0.03   0.20   0.01     0.09  -0.11  -0.02
  13   8    -0.01  -0.04   0.00     0.03   0.13  -0.00    -0.11  -0.23   0.02
  14   6     0.06   0.13  -0.01     0.01  -0.15   0.00    -0.07   0.03   0.01
  15   6    -0.10   0.09   0.02     0.12  -0.02  -0.03     0.04   0.05  -0.01
  16   1    -0.03   0.01   0.00    -0.00   0.00  -0.00    -0.05   0.02   0.01
  17   1     0.00   0.01   0.00    -0.00   0.00   0.00     0.01   0.01   0.00
  18   1     0.01   0.00  -0.00     0.00   0.00  -0.00     0.01   0.01  -0.00
  19   1     0.02  -0.03   0.07     0.02  -0.01   0.02     0.00   0.01  -0.06
  20   1     0.01  -0.04   0.05     0.03  -0.04   0.05     0.03  -0.08   0.08
  21   1     0.02  -0.05   0.08     0.00  -0.01   0.01     0.00  -0.04  -0.01
  22   1    -0.17   0.11   0.49    -0.07   0.05   0.23     0.03  -0.01  -0.07
  23   1     0.09  -0.01  -0.06    -0.01  -0.07  -0.03     0.03   0.04  -0.01
  24   1     0.14  -0.01  -0.06    -0.30   0.00   0.09    -0.05  -0.00   0.01
  25   1    -0.05  -0.03   0.01     0.17   0.10  -0.04     0.18   0.21  -0.04
  26   1     0.12   0.09  -0.02    -0.34  -0.26   0.06     0.49   0.38  -0.09
  27   1     0.26  -0.02  -0.05    -0.34   0.03   0.06    -0.45   0.10   0.09
  28   1    -0.07  -0.02   0.01     0.32   0.31  -0.06     0.10   0.12  -0.02
                     46                     47                     48
                        a                      a                      a 
 Frequencies --  1151.8475              1192.5147              1211.5287
 Red. masses --     9.0069                 1.9122                11.2700
 Frc consts  --     0.0000                 0.0000                 0.0000
 IR Inten    --   220.5582                 2.0558               692.9673
 Raman Activ --     0.0000                 0.0000                 0.0000
 Depolar     --     0.0000                 0.0000                 0.0000
 Atom AN      X      Y      Z        X      Y      Z        X      Y      Z
   1   6    -0.07  -0.03  -0.00     0.00   0.00  -0.00     0.21   0.11   0.01
   2   6     0.18   0.08  -0.01    -0.00  -0.00   0.00    -0.67  -0.29  -0.02
   3   8    -0.02  -0.04   0.01     0.00   0.00  -0.00     0.10  -0.08  -0.02
   4   8    -0.02  -0.01   0.03    -0.00   0.00  -0.01     0.25   0.30   0.06
   5   6     0.00  -0.30  -0.58    -0.00   0.00   0.06     0.07  -0.11  -0.17
   6   6     0.01   0.08   0.20     0.02  -0.01  -0.01    -0.03   0.03   0.05
   7   8    -0.10   0.10   0.30     0.00  -0.02  -0.03    -0.03   0.04   0.09
   8   7     0.01   0.13   0.06     0.01  -0.00  -0.01     0.06   0.08   0.00
   9   6     0.01  -0.01  -0.00    -0.02  -0.08   0.00    -0.10  -0.01   0.03
  10   6     0.01   0.02   0.00     0.11  -0.03  -0.01    -0.01   0.01   0.00
  11   6    -0.02  -0.03   0.00    -0.05  -0.07   0.01     0.01  -0.02  -0.00
  12   6    -0.05   0.04   0.01     0.09  -0.02  -0.02    -0.09  -0.04   0.02
  13   8     0.06   0.11  -0.01    -0.06   0.01   0.01     0.05   0.01  -0.01
  14   6     0.00  -0.02  -0.00    -0.04   0.09   0.01    -0.02   0.01   0.00
  15   6    -0.00  -0.02   0.00    -0.00   0.16  -0.00     0.02  -0.02  -0.00
  16   1    -0.08   0.04   0.01     0.00  -0.00   0.00     0.26  -0.13  -0.06
  17   1     0.01   0.02   0.01    -0.00   0.00   0.00    -0.02  -0.05  -0.03
  18   1     0.01   0.01  -0.01     0.00  -0.00   0.00    -0.05  -0.02   0.02
  19   1     0.01   0.01  -0.13    -0.03   0.01  -0.01     0.02  -0.00  -0.03
  20   1     0.07  -0.17   0.18    -0.04   0.02  -0.03     0.02  -0.05   0.05
  21   1     0.00  -0.08  -0.05     0.00  -0.00   0.01    -0.01  -0.01  -0.05
  22   1     0.08  -0.03  -0.22    -0.00  -0.00  -0.00     0.00   0.01  -0.02
  23   1     0.09   0.11  -0.03     0.06   0.05  -0.01    -0.04  -0.04  -0.01
  24   1     0.06  -0.00  -0.03     0.51  -0.10  -0.14     0.11  -0.02  -0.03
  25   1    -0.10  -0.12   0.02    -0.38  -0.43   0.08     0.05   0.05  -0.01
  26   1    -0.23  -0.18   0.04    -0.06  -0.03   0.01     0.03   0.02  -0.01
  27   1     0.16  -0.04  -0.03    -0.37   0.10   0.07     0.01  -0.00  -0.00
  28   1    -0.04  -0.05   0.00     0.22   0.29  -0.04     0.04   0.04  -0.01
                     49                     50                     51
                        a                      a                      a 
 Frequencies --  1226.3626              1275.7586              1289.6132
 Red. masses --     5.8557                 7.3412                 7.6436
 Frc consts  --     0.0000                 0.0000                 0.0000
 IR Inten    --    47.4010               166.6477               165.3979
 Raman Activ --     0.0000                 0.0000                 0.0000
 Depolar     --     0.0000                 0.0000                 0.0000
 Atom AN      X      Y      Z        X      Y      Z        X      Y      Z
   1   6     0.02   0.01   0.00    -0.02  -0.02  -0.00    -0.00  -0.00   0.00
   2   6    -0.08  -0.03  -0.01     0.11   0.04   0.00    -0.02  -0.03  -0.01
   3   8     0.01  -0.02  -0.00    -0.02   0.01   0.00    -0.00   0.07   0.02
   4   8     0.07   0.05   0.01    -0.03  -0.05  -0.01     0.01  -0.10  -0.00
   5   6    -0.11  -0.01  -0.10    -0.15  -0.02   0.00     0.11   0.59  -0.17
   6   6     0.03   0.03   0.03     0.06   0.01   0.01    -0.02  -0.16   0.04
   7   8     0.02   0.04   0.01     0.03   0.01  -0.04    -0.11  -0.11   0.17
   8   7    -0.13  -0.03   0.03     0.08   0.03  -0.00     0.07  -0.15   0.02
   9   6     0.27   0.26  -0.04     0.01   0.31   0.01    -0.16   0.03   0.04
  10   6     0.08  -0.12  -0.02     0.06   0.11  -0.01    -0.04  -0.03   0.01
  11   6    -0.04   0.05   0.01    -0.20  -0.16   0.04     0.02  -0.06  -0.01
  12   6     0.32   0.09  -0.06    -0.40  -0.15   0.08     0.07   0.01  -0.01
  13   8    -0.20  -0.04   0.04     0.25   0.11  -0.05    -0.03   0.01   0.01
  14   6     0.13  -0.11  -0.03    -0.00  -0.11   0.00     0.09   0.03  -0.02
  15   6    -0.01   0.07   0.00     0.15  -0.10  -0.03    -0.05  -0.01   0.01
  16   1     0.03  -0.01  -0.01    -0.04   0.02   0.01     0.01  -0.01  -0.00
  17   1    -0.00  -0.01  -0.00    -0.01   0.01   0.01     0.02  -0.01  -0.01
  18   1    -0.01  -0.00   0.00    -0.01   0.00  -0.00     0.02  -0.01   0.01
  19   1    -0.02   0.02  -0.03    -0.04   0.02  -0.02     0.04  -0.05   0.13
  20   1     0.00  -0.04   0.03    -0.05  -0.01  -0.01     0.04   0.07  -0.04
  21   1     0.00  -0.04   0.03     0.01  -0.04   0.04     0.00   0.08   0.01
  22   1    -0.03   0.03   0.10    -0.04   0.02   0.10     0.18  -0.11  -0.52
  23   1    -0.31  -0.26   0.08    -0.18  -0.19   0.02    -0.11  -0.17  -0.00
  24   1    -0.05  -0.02   0.02     0.47  -0.06  -0.12     0.13  -0.04  -0.03
  25   1    -0.14  -0.14   0.03     0.19   0.23  -0.03     0.07   0.05  -0.01
  26   1    -0.09  -0.05   0.02    -0.00  -0.02   0.00    -0.04  -0.03   0.01
  27   1    -0.27   0.04   0.05    -0.12  -0.01   0.02    -0.03   0.02   0.01
  28   1    -0.35  -0.38   0.06    -0.04  -0.13   0.01    -0.04  -0.03   0.01
                     52                     53                     54
                        a                      a                      a 
 Frequencies --  1299.9695              1350.5465              1364.1251
 Red. masses --     5.5960                10.2355                 3.7357
 Frc consts  --     0.0000                 0.0000                 0.0000
 IR Inten    --    15.2180                44.3155                55.8543
 Raman Activ --     0.0000                 0.0000                 0.0000
 Depolar     --     0.0000                 0.0000                 0.0000
 Atom AN      X      Y      Z        X      Y      Z        X      Y      Z
   1   6     0.00  -0.00   0.00     0.02  -0.01  -0.00     0.42  -0.16  -0.03
   2   6    -0.00  -0.01  -0.00     0.02   0.00  -0.00    -0.04  -0.02  -0.00
   3   8    -0.00   0.01   0.00    -0.01   0.01   0.00    -0.01   0.03   0.01
   4   8     0.02  -0.01   0.00    -0.01  -0.02   0.00    -0.01  -0.01  -0.00
   5   6    -0.03   0.10  -0.08    -0.06   0.04  -0.04    -0.02  -0.02  -0.01
   6   6    -0.00  -0.00   0.00     0.01   0.01  -0.01    -0.00   0.01  -0.01
   7   8    -0.02  -0.00   0.04     0.00  -0.00   0.01     0.00   0.00  -0.00
   8   7    -0.09   0.00   0.03     0.04   0.06  -0.01     0.10   0.06  -0.01
   9   6     0.26   0.07  -0.04     0.18  -0.31  -0.01    -0.09   0.02   0.03
  10   6     0.31  -0.01  -0.06    -0.33   0.07   0.07    -0.02  -0.03   0.00
  11   6    -0.12   0.04   0.02     0.24   0.27  -0.05     0.03  -0.03  -0.01
  12   6    -0.29   0.16   0.06     0.01  -0.34  -0.00     0.05   0.07  -0.01
  13   8     0.10  -0.06  -0.02     0.07   0.05  -0.01    -0.04  -0.02   0.01
  14   6    -0.13  -0.06   0.03    -0.39   0.02   0.08     0.03   0.02  -0.01
  15   6     0.01  -0.19  -0.00     0.31   0.24  -0.07    -0.05  -0.05   0.01
  16   1    -0.00   0.00  -0.00    -0.03   0.02   0.00    -0.37   0.29   0.01
  17   1     0.00  -0.00  -0.00    -0.02   0.00   0.01    -0.45   0.09   0.24
  18   1     0.00  -0.00   0.00    -0.03   0.00  -0.01    -0.47   0.13  -0.17
  19   1     0.02  -0.01   0.03     0.01  -0.00   0.03     0.01  -0.00   0.02
  20   1     0.03  -0.02   0.02     0.00  -0.03   0.02     0.00  -0.02   0.01
  21   1    -0.00  -0.01   0.03     0.00  -0.02   0.03    -0.00  -0.02   0.01
  22   1     0.02  -0.01  -0.06     0.00  -0.00  -0.01    -0.00   0.00   0.01
  23   1    -0.30  -0.25   0.07    -0.27  -0.24   0.07    -0.04  -0.05  -0.00
  24   1    -0.23   0.06   0.06    -0.01   0.01  -0.00     0.01  -0.01  -0.00
  25   1    -0.26  -0.23   0.05    -0.02  -0.01  -0.00     0.01  -0.02  -0.00
  26   1     0.22   0.16  -0.04    -0.10  -0.09   0.02     0.02   0.02  -0.00
  27   1     0.21  -0.07  -0.04     0.00  -0.02   0.00     0.04   0.00  -0.01
  28   1     0.25   0.22  -0.05     0.04   0.01  -0.01     0.01   0.02  -0.00
                     55                     56                     57
                        a                      a                      a 
 Frequencies --  1375.5430              1383.4148              1437.6708
 Red. masses --     8.7732                 4.3042                 1.6947
 Frc consts  --     0.0000                 0.0000                 0.0000
 IR Inten    --    70.0342                16.4777                18.0661
 Raman Activ --     0.0000                 0.0000                 0.0000
 Depolar     --     0.0000                 0.0000                 0.0000
 Atom AN      X      Y      Z        X      Y      Z        X      Y      Z
   1   6    -0.11   0.03   0.01     0.03  -0.01   0.00    -0.08  -0.11   0.19
   2   6     0.09   0.03  -0.00    -0.03  -0.02  -0.01     0.02   0.02   0.04
   3   8    -0.01   0.01   0.00     0.00   0.01   0.00     0.01  -0.03  -0.01
   4   8    -0.04  -0.04  -0.00     0.02   0.01  -0.00    -0.01  -0.01  -0.01
   5   6    -0.16  -0.13   0.01     0.09   0.03   0.04    -0.00   0.01   0.00
   6   6    -0.01   0.11  -0.14    -0.15   0.18  -0.33     0.00  -0.01  -0.01
   7   8     0.03   0.01  -0.04    -0.02  -0.01   0.01    -0.00  -0.00  -0.00
   8   7     0.40   0.26  -0.06    -0.16  -0.10   0.02    -0.00  -0.01   0.00
   9   6    -0.31   0.04   0.09     0.10  -0.04  -0.04    -0.00   0.03  -0.00
  10   6    -0.15  -0.10   0.03     0.10   0.06  -0.02    -0.02  -0.01   0.00
  11   6     0.17  -0.07  -0.04    -0.11   0.02   0.02     0.03   0.00  -0.01
  12   6     0.18   0.20  -0.03    -0.07  -0.11   0.01    -0.00   0.02   0.00
  13   8    -0.12  -0.08   0.02     0.05   0.04  -0.01    -0.00  -0.01   0.00
  14   6     0.02   0.09  -0.00     0.05  -0.03  -0.01    -0.02  -0.01   0.00
  15   6    -0.14  -0.16   0.03     0.02   0.08  -0.00     0.02  -0.00  -0.00
  16   1     0.06  -0.05   0.00    -0.01   0.01  -0.01     0.13  -0.12  -0.62
  17   1     0.10  -0.02  -0.06    -0.02  -0.00   0.01    -0.24   0.06   0.15
  18   1     0.10  -0.03   0.04    -0.02   0.01  -0.01     0.31   0.52  -0.27
  19   1     0.07  -0.02   0.18     0.25  -0.08   0.42    -0.02   0.01   0.01
  20   1     0.04  -0.18   0.11     0.23  -0.31   0.26     0.00  -0.01   0.01
  21   1    -0.01  -0.14   0.18    -0.04  -0.21   0.39     0.00   0.02   0.01
  22   1    -0.03   0.02   0.08     0.01  -0.01  -0.06     0.00  -0.00  -0.01
  23   1    -0.22  -0.26   0.00     0.12   0.13  -0.01     0.01   0.01  -0.00
  24   1     0.09  -0.06  -0.03    -0.01   0.03  -0.02     0.02  -0.01  -0.00
  25   1     0.03  -0.05  -0.00    -0.00   0.04   0.00    -0.00  -0.01   0.00
  26   1     0.05   0.05  -0.01    -0.03  -0.03   0.01     0.01   0.01  -0.00
  27   1     0.15  -0.00  -0.03    -0.10   0.02   0.02     0.01  -0.01  -0.00
  28   1     0.06   0.07  -0.01    -0.04  -0.03   0.01    -0.00  -0.01   0.00
                     58                     59                     60
                        a                      a                      a 
 Frequencies --  1440.2070              1441.1271              1460.6844
 Red. masses --     2.1510                 8.7914                 1.6526
 Frc consts  --     0.0000                 0.0000                 0.0000
 IR Inten    --    33.6395                73.3223                 5.6317
 Raman Activ --     0.0000                 0.0000                 0.0000
 Depolar     --     0.0000                 0.0000                 0.0000
 Atom AN      X      Y      Z        X      Y      Z        X      Y      Z
   1   6     0.10   0.14   0.12    -0.04  -0.05  -0.02    -0.01  -0.01   0.00
   2   6     0.02  -0.02   0.01     0.02   0.01  -0.00     0.01  -0.01  -0.01
   3   8    -0.02   0.03   0.01     0.00  -0.01  -0.00    -0.00   0.01   0.00
   4   8     0.00   0.00  -0.00    -0.01  -0.01   0.00    -0.00  -0.00  -0.00
   5   6    -0.01  -0.02  -0.01    -0.04  -0.03  -0.02    -0.02   0.03   0.03
   6   6    -0.00   0.00   0.02     0.01   0.01   0.04    -0.15   0.11   0.12
   7   8     0.00   0.00  -0.00     0.00   0.00  -0.00     0.00  -0.00  -0.00
   8   7     0.03   0.05  -0.00     0.10   0.17  -0.02    -0.00  -0.02  -0.00
   9   6     0.01  -0.10   0.00     0.03  -0.37   0.01    -0.00   0.03  -0.00
  10   6     0.07   0.05  -0.01     0.25   0.18  -0.05    -0.03  -0.01   0.01
  11   6    -0.09  -0.01   0.02    -0.30  -0.03   0.06     0.03  -0.00  -0.01
  12   6     0.03  -0.08  -0.01     0.10  -0.30  -0.02    -0.00   0.03   0.00
  13   8     0.00   0.03  -0.00     0.01   0.09  -0.00    -0.00  -0.01   0.00
  14   6     0.08   0.05  -0.02     0.27   0.17  -0.06    -0.02  -0.01   0.00
  15   6    -0.09   0.01   0.02    -0.31   0.01   0.06     0.02  -0.00  -0.00
  16   1    -0.26   0.21  -0.39     0.08  -0.07   0.06     0.01  -0.01  -0.01
  17   1    -0.26  -0.54  -0.32     0.06   0.16   0.10     0.00   0.01   0.01
  18   1     0.19  -0.26   0.21    -0.02   0.11  -0.08     0.00   0.02  -0.01
  19   1     0.02  -0.01  -0.03     0.02  -0.01  -0.04     0.61  -0.24  -0.27
  20   1    -0.00   0.02  -0.01    -0.04   0.03  -0.03     0.01   0.34  -0.17
  21   1    -0.00  -0.02  -0.01     0.00  -0.04  -0.04    -0.04  -0.54  -0.05
  22   1    -0.00   0.00   0.01    -0.00   0.00   0.02     0.01  -0.00   0.00
  23   1    -0.05  -0.04   0.01    -0.20  -0.17   0.04     0.01   0.00  -0.00
  24   1    -0.04   0.03   0.01    -0.15   0.10   0.04     0.03  -0.01  -0.01
  25   1     0.02   0.05  -0.00     0.07   0.17  -0.01    -0.00  -0.01   0.00
  26   1    -0.04  -0.03   0.01    -0.13  -0.10   0.03     0.01   0.01  -0.00
  27   1    -0.04   0.03   0.01    -0.13   0.10   0.03     0.01  -0.01  -0.00
  28   1     0.01   0.04  -0.00     0.04   0.15  -0.01    -0.00  -0.01   0.00
                     61                     62                     63
                        a                      a                      a 
 Frequencies --  1469.6291              1499.9216              1586.8403
 Red. masses --     1.6349                 9.9656                11.5051
 Frc consts  --     0.0000                 0.0000                 0.0000
 IR Inten    --     2.8625               397.4458                24.8248
 Raman Activ --     0.0000                 0.0000                 0.0000
 Depolar     --     0.0000                 0.0000                 0.0000
 Atom AN      X      Y      Z        X      Y      Z        X      Y      Z
   1   6    -0.00  -0.00  -0.00    -0.01  -0.00   0.00    -0.00   0.00  -0.00
   2   6     0.00   0.01  -0.00     0.03  -0.00  -0.00     0.00  -0.00  -0.00
   3   8     0.00  -0.01  -0.00    -0.01   0.01   0.00    -0.00   0.00   0.00
   4   8     0.00   0.00   0.00    -0.02  -0.02  -0.00    -0.00  -0.00  -0.00
   5   6    -0.05  -0.06  -0.01    -0.01   0.00  -0.00    -0.00   0.00   0.01
   6   6    -0.15  -0.15  -0.03     0.01  -0.01   0.01     0.00   0.00   0.00
   7   8     0.01   0.01  -0.01     0.00  -0.01  -0.01     0.00   0.00  -0.00
   8   7     0.04   0.03  -0.01     0.18   0.07  -0.02     0.03  -0.04   0.00
   9   6    -0.03  -0.01   0.01    -0.43  -0.14   0.10    -0.21   0.45   0.04
  10   6     0.00   0.00   0.00     0.20  -0.16  -0.05     0.23  -0.24  -0.05
  11   6     0.00   0.01  -0.00     0.15   0.25  -0.03     0.05   0.35  -0.01
  12   6    -0.00  -0.01   0.00    -0.41  -0.02   0.08     0.13  -0.53  -0.03
  13   8     0.00   0.00  -0.00     0.09   0.01  -0.02     0.02   0.06  -0.00
  14   6     0.01   0.01  -0.00     0.27  -0.19  -0.05    -0.17   0.23   0.03
  15   6    -0.01  -0.00   0.00     0.13   0.29  -0.03    -0.05  -0.28   0.01
  16   1     0.00  -0.00   0.01     0.00  -0.00  -0.00    -0.00   0.00  -0.00
  17   1     0.01   0.01   0.00     0.00   0.00   0.00    -0.00  -0.00  -0.00
  18   1    -0.01   0.00  -0.00     0.00   0.00  -0.00     0.00  -0.00   0.00
  19   1    -0.01  -0.02  -0.38     0.00  -0.00  -0.00     0.00  -0.00   0.00
  20   1     0.62   0.30   0.06    -0.02   0.01  -0.01    -0.01   0.00  -0.00
  21   1    -0.01   0.32   0.46     0.00  -0.01  -0.02    -0.00  -0.01  -0.01
  22   1    -0.01   0.01   0.03    -0.00  -0.00   0.00     0.00  -0.00   0.00
  23   1    -0.02  -0.02   0.00    -0.00  -0.03  -0.03     0.07   0.04  -0.03
  24   1     0.02  -0.00  -0.02    -0.20   0.00   0.05    -0.09  -0.03   0.02
  25   1     0.00   0.00   0.00    -0.16  -0.15   0.03    -0.09  -0.02   0.02
  26   1    -0.00  -0.00   0.00     0.07   0.05  -0.01    -0.10  -0.07   0.02
  27   1    -0.00   0.00   0.00    -0.19  -0.00   0.04     0.04   0.04  -0.01
  28   1    -0.00   0.00   0.00    -0.18  -0.15   0.04     0.06   0.02  -0.01
                     64                     65                     66
                        a                      a                      a 
 Frequencies --  1626.1934              1763.1700              3031.2770
 Red. masses --    11.6107                13.2866                 1.7918
 Frc consts  --     0.0000                 0.0000                 0.0000
 IR Inten    --     2.5428               421.0392                 2.1631
 Raman Activ --     0.0000                 0.0000                 0.0000
 Depolar     --     0.0000                 0.0000                 0.0000
 Atom AN      X      Y      Z        X      Y      Z        X      Y      Z
   1   6    -0.00   0.00   0.00     0.06  -0.04  -0.01    -0.06   0.12  -0.23
   2   6     0.01  -0.01  -0.00    -0.28   0.73   0.16    -0.00   0.01  -0.00
   3   8    -0.00   0.01   0.00     0.18  -0.54  -0.12     0.00  -0.00  -0.00
   4   8    -0.01  -0.01   0.00    -0.00  -0.06  -0.01     0.00   0.00   0.00
   5   6    -0.00   0.01  -0.00    -0.02   0.04   0.02    -0.00   0.00  -0.00
   6   6     0.00  -0.00   0.00     0.00  -0.00  -0.00    -0.00  -0.00   0.00
   7   8     0.00  -0.00  -0.00     0.00  -0.01  -0.01     0.00   0.00  -0.00
   8   7     0.07   0.02  -0.01     0.02  -0.00  -0.00     0.00   0.00   0.00
   9   6    -0.29  -0.06   0.06    -0.02  -0.00   0.00    -0.00  -0.00  -0.00
  10   6     0.41   0.00  -0.08     0.01  -0.00  -0.00     0.00   0.00   0.00
  11   6    -0.33  -0.25   0.06    -0.00  -0.00   0.00     0.00  -0.00  -0.00
  12   6     0.28   0.10  -0.05    -0.00  -0.00   0.00     0.00  -0.00  -0.00
  13   8    -0.05  -0.02   0.01     0.00   0.00  -0.00     0.00   0.00  -0.00
  14   6    -0.45  -0.01   0.09    -0.00  -0.00   0.00     0.00   0.00   0.00
  15   6     0.37   0.24  -0.08     0.01   0.00  -0.00     0.00  -0.00  -0.00
  16   1     0.00  -0.00  -0.00    -0.04   0.04   0.01     0.01   0.03  -0.03
  17   1     0.00   0.00   0.00     0.02  -0.02  -0.02     0.24  -0.56   0.73
  18   1     0.00   0.00  -0.00     0.03  -0.02   0.02    -0.03   0.11   0.12
  19   1     0.00  -0.00  -0.00     0.02  -0.01   0.02     0.00   0.01   0.00
  20   1     0.00   0.00  -0.00    -0.01   0.00  -0.00     0.00  -0.00  -0.01
  21   1     0.00  -0.00   0.00     0.00  -0.01   0.00    -0.00  -0.00   0.00
  22   1    -0.00   0.00   0.00     0.03  -0.03  -0.03    -0.00  -0.00  -0.00
  23   1     0.00  -0.01  -0.01    -0.01  -0.01   0.00    -0.00  -0.00  -0.00
  24   1    -0.08   0.03   0.02    -0.00  -0.00   0.00    -0.00  -0.00  -0.00
  25   1     0.05   0.08  -0.01    -0.00   0.00   0.00    -0.00   0.00   0.00
  26   1    -0.01  -0.00   0.00    -0.00  -0.00   0.00    -0.00   0.00  -0.00
  27   1     0.09  -0.05  -0.02     0.00  -0.00  -0.00    -0.00  -0.00   0.00
  28   1    -0.04  -0.09   0.01    -0.00  -0.00   0.00    -0.00   0.00   0.00
                     67                     68                     69
                        a                      a                      a 
 Frequencies --  3040.5726              3047.3044              3052.7851
 Red. masses --     1.6271                 1.5194                 1.7974
 Frc consts  --     0.0000                 0.0000                 0.0000
 IR Inten    --     7.6707                 1.5877                10.2274
 Raman Activ --     0.0000                 0.0000                 0.0000
 Depolar     --     0.0000                 0.0000                 0.0000
 Atom AN      X      Y      Z        X      Y      Z        X      Y      Z
   1   6    -0.00   0.01   0.00     0.07  -0.10  -0.17    -0.01   0.00   0.01
   2   6    -0.00   0.00  -0.00     0.00  -0.01  -0.00    -0.00   0.00   0.00
   3   8     0.00  -0.00   0.00    -0.00   0.00   0.00     0.00  -0.00  -0.00
   4   8     0.00   0.00   0.00    -0.00   0.00   0.00     0.00  -0.00  -0.00
   5   6     0.00   0.01  -0.00    -0.00   0.00   0.00    -0.00   0.00   0.01
   6   6     0.10   0.21  -0.03    -0.00   0.02   0.01    -0.07   0.16   0.20
   7   8    -0.00  -0.00   0.00    -0.00  -0.00   0.00    -0.00  -0.00  -0.00
   8   7    -0.00  -0.00  -0.00    -0.00  -0.00  -0.00     0.00  -0.00  -0.00
   9   6    -0.00  -0.00   0.00     0.00  -0.00   0.00    -0.00   0.00   0.00
  10   6     0.00   0.00   0.00    -0.00   0.00   0.00     0.00   0.00   0.00
  11   6     0.00  -0.00  -0.00    -0.00   0.00   0.00     0.01  -0.01  -0.00
  12   6     0.00  -0.00   0.00    -0.00   0.00   0.00     0.00   0.00  -0.00
  13   8     0.00   0.00  -0.00    -0.00  -0.00   0.00    -0.00  -0.00  -0.00
  14   6    -0.00   0.00   0.00     0.00  -0.00  -0.00    -0.00  -0.00   0.00
  15   6     0.00  -0.00  -0.00    -0.00   0.00   0.00     0.00  -0.00  -0.00
  16   1     0.00   0.00   0.00    -0.13  -0.20  -0.02     0.01   0.02   0.00
  17   1     0.00  -0.01   0.01    -0.03   0.08  -0.15     0.00  -0.00   0.00
  18   1     0.00  -0.01  -0.02    -0.09   0.49   0.78     0.01  -0.03  -0.05
  19   1    -0.36  -0.88  -0.01    -0.02  -0.03   0.00    -0.07  -0.11   0.02
  20   1    -0.03   0.10   0.12     0.02  -0.03  -0.04     0.31  -0.47  -0.76
  21   1     0.06   0.03  -0.00     0.01   0.00   0.00     0.01   0.02   0.03
  22   1     0.00   0.00  -0.00     0.00   0.00  -0.00     0.00   0.00  -0.00
  23   1    -0.00   0.00  -0.00     0.00   0.00  -0.00     0.00   0.00   0.00
  24   1    -0.00  -0.01  -0.00     0.00  -0.00   0.00    -0.00  -0.01  -0.00
  25   1    -0.00   0.00   0.00     0.00  -0.00  -0.00    -0.05   0.05   0.01
  26   1    -0.00  -0.00   0.00     0.00   0.00  -0.00    -0.00  -0.00   0.00
  27   1    -0.00  -0.00   0.00     0.00   0.00  -0.00     0.00   0.00  -0.00
  28   1    -0.00   0.00   0.00     0.00  -0.00  -0.00    -0.01   0.01   0.00
                     70                     71                     72
                        a                      a                      a 
 Frequencies --  3055.2205              3069.3549              3072.6338
 Red. masses --     1.8190                 1.8668                 1.7390
 Frc consts  --     0.0000                 0.0000                 0.0000
 IR Inten    --    46.8322                 6.7591                 7.8946
 Raman Activ --     0.0000                 0.0000                 0.0000
 Depolar     --     0.0000                 0.0000                 0.0000
 Atom AN      X      Y      Z        X      Y      Z        X      Y      Z
   1   6     0.00   0.00  -0.00     0.13   0.24   0.03     0.00   0.00  -0.00
   2   6    -0.00  -0.00  -0.00     0.00   0.01   0.00     0.00  -0.00  -0.00
   3   8    -0.00   0.00   0.00    -0.00  -0.00  -0.00    -0.00  -0.00   0.00
   4   8     0.00   0.00   0.00    -0.00  -0.00  -0.00    -0.00  -0.00   0.00
   5   6    -0.00  -0.00  -0.00    -0.00   0.00   0.00     0.01  -0.00   0.00
   6   6     0.01  -0.01  -0.01    -0.01   0.00   0.00     0.26   0.00   0.01
   7   8     0.00   0.00   0.00     0.00   0.00  -0.00    -0.00   0.00  -0.00
   8   7     0.00  -0.00  -0.00     0.00  -0.00  -0.00    -0.00   0.00  -0.00
   9   6    -0.00   0.00   0.00    -0.00  -0.00   0.00    -0.00  -0.00   0.00
  10   6     0.00   0.01   0.00     0.00  -0.00   0.00     0.00   0.00  -0.00
  11   6     0.19  -0.18  -0.04    -0.00   0.00   0.00    -0.00   0.00   0.00
  12   6     0.01   0.00  -0.00    -0.00  -0.00   0.00    -0.00   0.00   0.00
  13   8    -0.00  -0.00   0.00     0.00   0.00  -0.00     0.00   0.00  -0.00
  14   6    -0.00  -0.01   0.00     0.00   0.00  -0.00     0.00   0.00  -0.00
  15   6    -0.00  -0.00   0.00     0.00  -0.00  -0.00     0.00  -0.00  -0.00
  16   1    -0.00  -0.01  -0.00    -0.54  -0.76   0.02    -0.01  -0.02   0.00
  17   1    -0.00   0.00  -0.00     0.03  -0.01   0.05    -0.00   0.00  -0.00
  18   1    -0.00   0.00   0.00     0.04  -0.09  -0.19    -0.00   0.00   0.01
  19   1     0.01   0.01  -0.00     0.00   0.00   0.00     0.01  -0.04  -0.00
  20   1    -0.02   0.03   0.05     0.00  -0.00  -0.01     0.04  -0.01  -0.01
  21   1    -0.02  -0.00  -0.00     0.02  -0.00   0.00    -0.96   0.03  -0.01
  22   1     0.00  -0.00  -0.00    -0.00  -0.00  -0.00     0.00  -0.00   0.00
  23   1     0.00  -0.00  -0.00    -0.00  -0.00   0.00     0.00  -0.00   0.00
  24   1    -0.02  -0.08  -0.00     0.00   0.00   0.00    -0.00  -0.01  -0.00
  25   1    -0.69   0.65   0.15     0.00  -0.00  -0.00     0.02  -0.02  -0.00
  26   1    -0.01  -0.00   0.00    -0.00   0.00   0.00     0.00   0.00  -0.00
  27   1     0.01   0.02  -0.00    -0.00  -0.00   0.00    -0.00  -0.00   0.00
  28   1    -0.00   0.00   0.00    -0.01   0.00   0.00    -0.00   0.00   0.00
                     73                     74                     75
                        a                      a                      a 
 Frequencies --  3079.1664              3110.1998              3124.2904
 Red. masses --     1.8082                 1.8544                 1.8363
 Frc consts  --     0.0000                 0.0000                 0.0000
 IR Inten    --    28.4289                23.5505                14.7842
 Raman Activ --     0.0000                 0.0000                 0.0000
 Depolar     --     0.0000                 0.0000                 0.0000
 Atom AN      X      Y      Z        X      Y      Z        X      Y      Z
   1   6     0.00   0.00   0.00    -0.00   0.00  -0.00    -0.00   0.00   0.00
   2   6    -0.00   0.00   0.00     0.00   0.00   0.00     0.00  -0.00  -0.00
   3   8     0.00  -0.00  -0.00    -0.00  -0.00  -0.00    -0.00  -0.00  -0.00
   4   8     0.00  -0.00  -0.00    -0.00  -0.00   0.00    -0.00   0.00  -0.00
   5   6    -0.00   0.00   0.00     0.00   0.00  -0.00     0.00  -0.00  -0.00
   6   6     0.00   0.00   0.00     0.00   0.00  -0.00     0.00   0.00   0.00
   7   8     0.00  -0.00  -0.00    -0.00   0.00  -0.00    -0.00  -0.00   0.00
   8   7     0.00  -0.00  -0.00    -0.00  -0.00   0.00     0.00   0.00  -0.00
   9   6    -0.01  -0.00   0.00     0.00   0.00  -0.00    -0.01  -0.00   0.00
  10   6     0.00   0.01  -0.00    -0.00  -0.00  -0.00    -0.05  -0.27  -0.00
  11   6     0.00   0.00  -0.00    -0.00   0.00   0.00     0.02  -0.02  -0.00
  12   6    -0.00  -0.00  -0.00    -0.01  -0.00   0.00     0.00   0.00  -0.00
  13   8    -0.00   0.00   0.00     0.00   0.00  -0.00    -0.00  -0.00   0.00
  14   6    -0.01  -0.04   0.00    -0.06  -0.26   0.01     0.00   0.00  -0.00
  15   6    -0.19   0.18   0.04     0.04  -0.04  -0.01    -0.00   0.01   0.00
  16   1    -0.00  -0.01   0.00    -0.00  -0.00   0.00    -0.00  -0.00   0.00
  17   1     0.00  -0.00   0.00     0.00  -0.00   0.00     0.00  -0.00   0.00
  18   1     0.00  -0.00  -0.00     0.00  -0.00  -0.00     0.00  -0.00  -0.00
  19   1    -0.00  -0.00   0.00    -0.00  -0.00  -0.00    -0.00  -0.01  -0.00
  20   1     0.00  -0.00  -0.01    -0.00   0.00   0.00     0.00   0.00  -0.00
  21   1    -0.00   0.00   0.00    -0.00   0.00  -0.00    -0.01   0.00   0.00
  22   1     0.00   0.00  -0.00    -0.00  -0.00   0.00     0.00   0.01   0.00
  23   1     0.00   0.00  -0.00    -0.00  -0.00  -0.00     0.00  -0.00  -0.00
  24   1    -0.01  -0.02   0.00     0.00   0.02  -0.00     0.19   0.94   0.00
  25   1     0.00  -0.00  -0.00     0.01  -0.01  -0.00    -0.06   0.06   0.01
  26   1     0.00  -0.00  -0.00     0.00  -0.00  -0.00    -0.00   0.00   0.00
  27   1     0.04   0.18  -0.01     0.20   0.92  -0.04    -0.00  -0.01   0.00
  28   1     0.69  -0.63  -0.13    -0.13   0.12   0.02     0.02  -0.02  -0.00
                     76                     77                     78
                        a                      a                      a 
 Frequencies --  3390.7166              3437.8307              3528.7015
 Red. masses --     1.8635                 1.8278                 1.8640
 Frc consts  --     0.0000                 0.0000                 0.0000
 IR Inten    --   101.9516                 4.7225                19.1831
 Raman Activ --     0.0000                 0.0000                 0.0000
 Depolar     --     0.0000                 0.0000                 0.0000
 Atom AN      X      Y      Z        X      Y      Z        X      Y      Z
   1   6    -0.00   0.00  -0.00    -0.00   0.00  -0.00     0.00   0.00   0.00
   2   6    -0.00  -0.01  -0.00     0.00   0.00  -0.00    -0.00  -0.00  -0.00
   3   8    -0.00   0.01   0.00    -0.00  -0.00   0.00     0.00   0.00   0.00
   4   8     0.00   0.00   0.00     0.00  -0.00   0.00     0.00   0.00  -0.00
   5   6    -0.00   0.01   0.01    -0.00   0.00  -0.00    -0.00  -0.00   0.00
   6   6     0.00   0.00   0.00    -0.00   0.00   0.00     0.00   0.00  -0.00
   7   8     0.10   0.22  -0.01     0.00   0.00  -0.00     0.00   0.00   0.00
   8   7     0.00  -0.00   0.00    -0.17   0.17  -0.06     0.00  -0.00  -0.00
   9   6     0.00  -0.00  -0.00    -0.01   0.00  -0.00    -0.00  -0.00   0.00
  10   6    -0.00  -0.00  -0.00     0.00  -0.00  -0.00    -0.00  -0.00   0.00
  11   6     0.00  -0.00  -0.00     0.00   0.00   0.00     0.00  -0.00  -0.00
  12   6     0.00   0.00  -0.00     0.00  -0.00   0.00    -0.01   0.00   0.00
  13   8    -0.00  -0.00   0.00    -0.00   0.00  -0.00    -0.15   0.19   0.03
  14   6     0.00   0.00  -0.00    -0.00  -0.00   0.00     0.00   0.00   0.00
  15   6    -0.00   0.00   0.00     0.00   0.00  -0.00     0.00   0.00  -0.00
  16   1     0.00   0.00  -0.00    -0.00   0.00  -0.00    -0.00  -0.00  -0.00
  17   1    -0.00   0.00  -0.00    -0.00  -0.00   0.00    -0.00  -0.00   0.00
  18   1    -0.00  -0.00   0.00     0.00  -0.00  -0.00    -0.00  -0.00   0.00
  19   1    -0.00  -0.00  -0.00    -0.00  -0.00  -0.00    -0.00  -0.00  -0.00
  20   1     0.00  -0.00  -0.00    -0.00   0.00   0.00    -0.00   0.00   0.00
  21   1     0.00   0.00   0.00     0.00  -0.00   0.00    -0.00  -0.00  -0.00
  22   1    -0.39  -0.89  -0.00    -0.01  -0.02  -0.00    -0.00  -0.00  -0.00
  23   1    -0.01   0.01  -0.00     0.66  -0.65   0.26    -0.00   0.00  -0.00
  24   1     0.00   0.01   0.00    -0.00  -0.00  -0.00     0.00   0.00  -0.00
  25   1    -0.00   0.00   0.00     0.00  -0.00  -0.00    -0.00  -0.00   0.00
  26   1    -0.00   0.00   0.00     0.00  -0.00  -0.00     0.61  -0.74  -0.13
  27   1     0.00  -0.00   0.00     0.00   0.00  -0.00    -0.00  -0.01   0.00
  28   1     0.00  -0.00  -0.00     0.00  -0.00  -0.00    -0.00  -0.00   0.00
