 Entering Gaussian System
 *********************************************
 Gaussian 98:
 frequency output generated by the xtb code
 *********************************************
                         Standard orientation:
 --------------------------------------------------------------------
  Center     Atomic     Atomic              Coordinates (Angstroms)
  Number     Number      Type              X           Y           Z
 --------------------------------------------------------------------
    1          8             0        3.784742    4.118504   -3.289229
    2          8             0        6.702082    3.628314   -1.562396
    3          8             0        2.285629    5.822446   -2.954804
    4          6             0        5.648458    3.116821   -1.304065
    5          6             0        3.544917    5.330077   -2.612411
    6          6             0        5.144268    1.743523   -1.421670
    7          6             0        4.590571    6.382648   -3.003993
    8          1             0        4.378573    1.762883   -2.196429
    9          1             0        4.662546    1.451870   -0.491691
   10          1             0        5.933191    1.036830   -1.686591
   11          1             0        4.480030    7.261524   -2.377404
   12          1             0        5.581717    5.958993   -2.863691
   13          1             0        4.109412    8.250586    3.738275
   14          1             0        1.604813    5.196790   -2.662103
   15          8             0        3.591679    8.580645    2.989408
   16          7             0        3.599264    4.952184   -1.218324
   17          6             0        3.631926    5.895045   -0.198905
   18          6             0        4.315540    5.597379    0.980075
   19          6             0        2.935085    7.103462   -0.270789
   20          6             0        3.621558    7.676058    1.963491
   21          6             0        4.310150    6.472796    2.048020
   22          6             0        2.933838    7.980537    0.794306
   23          1             0        4.866737    4.671288    1.050910
   24          1             0        2.386611    7.353171   -1.165061
   25          1             0        4.853145    6.220430    2.947587
   26          1             0        2.397120    8.914484    0.736312
   27          1             0        4.449650    6.666926   -4.042168
   28          1             0        4.325408    4.192662   -1.100786
   29          1             0        3.719712    4.270116   -4.243555
 --------------------------------------------------------------------
     1 basis functions        1 primitive gaussians
     1 alpha electrons        1 beta electrons

 Harmonic frequencies (cm**-1), IR intensities (km*mol⁻¹),
 Raman scattering activities (A**4/amu), Raman depolarization ratios,
 reduced masses (AMU), force constants (mDyne/A) and normal coordinates:
                      1                      2                      3
                        a                      a                      a 
 Frequencies --    29.8252                32.9348                45.3047
 Red. masses --    12.4359                12.9332                10.1587
 Frc consts  --     0.0000                 0.0000                 0.0000
 IR Inten    --     4.3741                 2.6809                 3.0895
 Raman Activ --     0.0000                 0.0000                 0.0000
 Depolar     --     0.0000                 0.0000                 0.0000
 Atom AN      X      Y      Z        X      Y      Z        X      Y      Z
   1   8     0.11   0.15  -0.14     0.27   0.07   0.05     0.15  -0.05   0.14
   2   8     0.16  -0.23   0.56    -0.05  -0.32  -0.55    -0.06  -0.02   0.07
   3   8    -0.13  -0.09  -0.01     0.07  -0.10   0.02     0.08  -0.10   0.04
   4   6    -0.01  -0.06   0.15    -0.04  -0.12  -0.14    -0.04  -0.13  -0.11
   5   6    -0.04   0.07  -0.07     0.10   0.04   0.04     0.05  -0.06   0.12
   6   6    -0.17   0.01  -0.05    -0.23  -0.07   0.20    -0.03  -0.09  -0.65
   7   6    -0.19   0.22  -0.06     0.01   0.14   0.06     0.06  -0.03   0.21
   8   1     0.02   0.04  -0.08    -0.12  -0.03   0.11    -0.02   0.06  -0.17
   9   1    -0.14   0.02  -0.06    -0.01   0.04   0.10     0.01  -0.14  -0.21
  10   1    -0.06  -0.03   0.05    -0.11  -0.06   0.04    -0.01   0.01  -0.28
  11   1    -0.08   0.05  -0.01    -0.02   0.03   0.02    -0.01  -0.01   0.05
  12   1    -0.04   0.10  -0.03     0.01   0.07   0.02     0.02  -0.00   0.09
  13   1     0.04  -0.00  -0.02    -0.03   0.03   0.01     0.01   0.08  -0.03
  14   1    -0.01  -0.05  -0.01     0.03  -0.05  -0.01     0.02  -0.03  -0.01
  15   8     0.04  -0.07  -0.00    -0.20   0.04   0.05     0.01   0.24  -0.11
  16   7     0.05   0.04  -0.09     0.13   0.05   0.04    -0.04  -0.07   0.14
  17   6     0.04   0.01  -0.06     0.06   0.05   0.04    -0.04  -0.02   0.10
  18   6     0.22   0.08  -0.15     0.17   0.15  -0.00     0.01   0.07   0.09
  19   6    -0.14  -0.09   0.04    -0.11  -0.05   0.07    -0.09  -0.05   0.05
  20   6     0.04  -0.04  -0.03    -0.09   0.04   0.03    -0.01   0.13  -0.03
  21   6     0.22   0.06  -0.13     0.09   0.15  -0.00     0.02   0.15   0.03
  22   6    -0.14  -0.11   0.06    -0.18  -0.05   0.07    -0.07   0.02  -0.02
  23   1     0.11   0.05  -0.07     0.09   0.06  -0.01     0.01   0.03   0.04
  24   1    -0.08  -0.04   0.03    -0.05  -0.04   0.03    -0.04  -0.04   0.01
  25   1     0.10   0.04  -0.06     0.05   0.07  -0.01     0.02   0.07   0.01
  26   1    -0.08  -0.05   0.04    -0.09  -0.04   0.03    -0.03   0.00  -0.02
  27   1    -0.07   0.07  -0.01    -0.01   0.04   0.02     0.04  -0.01   0.06
  28   1     0.02   0.02  -0.03     0.04   0.02   0.01    -0.03  -0.02   0.05
  29   1     0.02   0.05  -0.03     0.10   0.02   0.01     0.05  -0.00   0.03
                      4                      5                      6
                        a                      a                      a 
 Frequencies --    52.5732                80.2510               100.1777
 Red. masses --    12.0847                11.4816                13.3610
 Frc consts  --     0.0000                 0.0000                 0.0000
 IR Inten    --     4.3335                 0.5975                 2.0365
 Raman Activ --     0.0000                 0.0000                 0.0000
 Depolar     --     0.0000                 0.0000                 0.0000
 Atom AN      X      Y      Z        X      Y      Z        X      Y      Z
   1   8    -0.24  -0.09   0.05    -0.34  -0.13   0.03    -0.24   0.17  -0.14
   2   8     0.29  -0.27   0.02    -0.09   0.10   0.05     0.38  -0.27  -0.08
   3   8    -0.08   0.01   0.25     0.17   0.32  -0.05     0.02   0.33   0.17
   4   6     0.15  -0.06  -0.07    -0.04   0.00   0.04     0.25  -0.07  -0.07
   5   6    -0.02  -0.02   0.01     0.01  -0.03  -0.02    -0.04   0.08   0.05
   6   6    -0.10   0.04  -0.20     0.05  -0.02  -0.01     0.09  -0.02   0.08
   7   6    -0.05  -0.09  -0.28     0.28  -0.29  -0.01     0.08   0.01   0.19
   8   1    -0.02   0.07  -0.06     0.00  -0.01   0.01     0.07  -0.01  -0.02
   9   1    -0.05   0.02  -0.07     0.03  -0.03  -0.00    -0.04   0.06   0.01
  10   1    -0.06  -0.02  -0.07     0.02   0.01  -0.03     0.01  -0.05   0.10
  11   1     0.05  -0.02  -0.08     0.10  -0.06  -0.03     0.06  -0.03   0.10
  12   1    -0.01  -0.04  -0.15     0.05  -0.14   0.05     0.01  -0.04   0.02
  13   1    -0.12  -0.02   0.05    -0.01  -0.01   0.01     0.05   0.07  -0.06
  14   1    -0.01   0.02   0.13    -0.00   0.12  -0.02    -0.01   0.09   0.01
  15   8    -0.33  -0.02   0.11    -0.20  -0.12   0.10     0.15   0.20  -0.23
  16   7     0.26   0.09   0.02    -0.06   0.00   0.00    -0.03  -0.11   0.01
  17   6     0.17   0.10  -0.01     0.04   0.05  -0.03    -0.14  -0.13   0.05
  18   6     0.03   0.07   0.07     0.28   0.17  -0.14    -0.14  -0.08   0.06
  19   6     0.21   0.12  -0.07    -0.13  -0.05   0.06    -0.18  -0.15   0.02
  20   6    -0.11   0.03   0.05    -0.04  -0.02   0.02    -0.03   0.03  -0.08
  21   6    -0.11   0.04   0.10     0.25   0.14  -0.12    -0.08   0.00  -0.00
  22   6     0.07   0.09  -0.04    -0.19  -0.09   0.09    -0.13  -0.08  -0.04
  23   1     0.00   0.02   0.03     0.14   0.08  -0.07    -0.04  -0.02   0.03
  24   1     0.09   0.05  -0.04    -0.06  -0.03   0.03    -0.06  -0.06   0.01
  25   1    -0.07   0.00   0.05     0.12   0.07  -0.06    -0.01   0.02  -0.00
  26   1     0.03   0.03  -0.03    -0.11  -0.05   0.05    -0.04  -0.02  -0.02
  27   1    -0.09  -0.03  -0.07     0.14  -0.11  -0.02     0.02   0.06   0.07
  28   1     0.08   0.04  -0.01    -0.03  -0.01   0.01     0.02   0.01  -0.02
  29   1    -0.13  -0.04   0.01    -0.09  -0.04   0.01    -0.06   0.08  -0.03
                      7                      8                      9
                        a                      a                      a 
 Frequencies --   109.9118               128.3614               142.3313
 Red. masses --     9.6792                 2.7241                11.9134
 Frc consts  --     0.0000                 0.0000                 0.0000
 IR Inten    --     6.1189                 1.9583                 1.3193
 Raman Activ --     0.0000                 0.0000                 0.0000
 Depolar     --     0.0000                 0.0000                 0.0000
 Atom AN      X      Y      Z        X      Y      Z        X      Y      Z
   1   8    -0.04   0.14  -0.05     0.02   0.03  -0.01    -0.04   0.17  -0.19
   2   8    -0.14  -0.11   0.07    -0.17   0.06  -0.09    -0.26   0.19   0.06
   3   8    -0.08   0.10   0.02    -0.01  -0.01   0.06    -0.02   0.08   0.36
   4   6    -0.00  -0.36   0.00    -0.10  -0.05  -0.08    -0.18   0.07   0.07
   5   6    -0.05   0.11  -0.03     0.01  -0.00   0.04     0.04   0.02   0.08
   6   6     0.42  -0.52   0.03     0.10  -0.13   0.00    -0.08   0.04   0.05
   7   6    -0.10   0.15  -0.04    -0.00   0.01   0.05    -0.00   0.09   0.15
   8   1     0.03  -0.22   0.10     0.42  -0.14  -0.39    -0.10   0.01   0.09
   9   1     0.27  -0.22   0.06    -0.44   0.10  -0.20     0.08  -0.03   0.05
  10   1     0.17  -0.06  -0.10     0.15  -0.08   0.48    -0.03   0.04  -0.09
  11   1    -0.03   0.04  -0.01     0.01  -0.00   0.02     0.08  -0.04   0.14
  12   1    -0.02   0.05  -0.03    -0.00   0.00   0.00     0.00  -0.01  -0.09
  13   1    -0.03  -0.00   0.02    -0.04   0.01   0.01    -0.08   0.02  -0.03
  14   1    -0.02   0.02   0.01     0.00   0.00   0.03     0.01   0.01   0.09
  15   8    -0.08   0.01   0.06    -0.11   0.01   0.01    -0.23   0.01  -0.21
  16   7    -0.02   0.10  -0.03     0.01  -0.02   0.03     0.16  -0.19   0.02
  17   6     0.02   0.08  -0.02     0.06  -0.00   0.02     0.18  -0.17   0.01
  18   6     0.01   0.07  -0.02     0.06   0.03   0.02     0.16  -0.07   0.04
  19   6     0.04   0.09  -0.02     0.07   0.01  -0.02     0.19  -0.18  -0.13
  20   6    -0.01   0.05   0.01    -0.00   0.02  -0.00    -0.00  -0.04  -0.13
  21   6    -0.01   0.05  -0.00     0.03   0.04   0.01     0.06   0.01  -0.02
  22   6     0.03   0.08  -0.00     0.04   0.02  -0.03     0.09  -0.11  -0.20
  23   1     0.00   0.02  -0.01     0.02   0.01   0.01     0.06  -0.01   0.04
  24   1     0.02   0.03  -0.00     0.03  -0.00  -0.01     0.06  -0.07  -0.05
  25   1    -0.01   0.01   0.00     0.00   0.02   0.01     0.01   0.03   0.01
  26   1     0.01   0.02  -0.00     0.01   0.00  -0.02     0.02  -0.04  -0.09
  27   1    -0.04   0.05  -0.01    -0.01   0.01   0.02    -0.09   0.14   0.08
  28   1    -0.06  -0.01  -0.01    -0.01  -0.02  -0.00     0.06  -0.06  -0.02
  29   1    -0.01   0.04  -0.01    -0.04   0.01   0.00    -0.02   0.10  -0.04
                     10                     11                     12
                        a                      a                      a 
 Frequencies --   176.1749               186.9779               218.6052
 Red. masses --     9.8400                 3.9926                10.8455
 Frc consts  --     0.0000                 0.0000                 0.0000
 IR Inten    --     2.9358                 2.3128                 2.5208
 Raman Activ --     0.0000                 0.0000                 0.0000
 Depolar     --     0.0000                 0.0000                 0.0000
 Atom AN      X      Y      Z        X      Y      Z        X      Y      Z
   1   8    -0.04   0.05   0.00    -0.05   0.05  -0.05     0.01  -0.04   0.08
   2   8     0.22  -0.12  -0.02    -0.10   0.05   0.03     0.09  -0.03   0.33
   3   8    -0.12  -0.02  -0.06     0.01   0.07   0.17     0.01  -0.01  -0.06
   4   6     0.12   0.02  -0.06    -0.08   0.00  -0.02    -0.27   0.16  -0.78
   5   6    -0.15  -0.02   0.07     0.05   0.04  -0.02    -0.00  -0.00   0.02
   6   6    -0.01   0.06   0.02    -0.01  -0.02   0.01     0.02  -0.01   0.05
   7   6    -0.07   0.01   0.38     0.00   0.04  -0.15     0.02  -0.03   0.01
   8   1    -0.02   0.03   0.02    -0.01  -0.02   0.01    -0.08  -0.23   0.10
   9   1     0.01   0.04   0.02     0.01  -0.01   0.01     0.12   0.16   0.13
  10   1    -0.03  -0.01  -0.00     0.01   0.00   0.00     0.04   0.00   0.11
  11   1    -0.19   0.07  -0.02    -0.31   0.21  -0.38     0.03  -0.02   0.02
  12   1    -0.03   0.07   0.36     0.01   0.19   0.41     0.00  -0.03  -0.03
  13   1    -0.10  -0.06   0.03     0.02   0.04  -0.02    -0.00   0.02   0.00
  14   1    -0.04  -0.03  -0.08     0.02   0.00   0.04     0.00  -0.01  -0.03
  15   8    -0.27  -0.17   0.07     0.07   0.10  -0.11    -0.01   0.05  -0.01
  16   7    -0.30  -0.13   0.07     0.22   0.03  -0.04     0.01   0.00   0.02
  17   6    -0.01  -0.00  -0.03     0.09  -0.04   0.02     0.03  -0.02   0.03
  18   6     0.10   0.04  -0.09    -0.01  -0.06   0.08     0.02  -0.00   0.05
  19   6     0.17   0.09  -0.12    -0.00  -0.10   0.02     0.02  -0.02   0.03
  20   6     0.07   0.02  -0.08    -0.04  -0.03   0.01    -0.00   0.01   0.02
  21   6     0.12   0.05  -0.09    -0.08  -0.05   0.07     0.01   0.02   0.04
  22   6     0.25   0.13  -0.15    -0.08  -0.10   0.01    -0.01  -0.02   0.02
  23   1     0.02   0.01  -0.03    -0.01  -0.02   0.03     0.01   0.00   0.02
  24   1     0.05   0.03  -0.03    -0.01  -0.04   0.01     0.01  -0.01   0.01
  25   1     0.03   0.01  -0.02    -0.03  -0.01   0.03     0.00   0.01   0.01
  26   1     0.10   0.05  -0.05    -0.03  -0.04  -0.00    -0.01  -0.01   0.00
  27   1     0.18  -0.12   0.05     0.30  -0.37  -0.19    -0.01   0.02   0.01
  28   1    -0.07  -0.02   0.01     0.06  -0.00  -0.02     0.04  -0.01  -0.06
  29   1     0.05   0.04   0.00    -0.05   0.01  -0.01     0.01  -0.02   0.02
                     13                     14                     15
                        a                      a                      a 
 Frequencies --   271.2450               283.8446               305.1377
 Red. masses --     5.5002                 8.8593                12.9459
 Frc consts  --     0.0000                 0.0000                 0.0000
 IR Inten    --   120.5739               100.0052                 2.6460
 Raman Activ --     0.0000                 0.0000                 0.0000
 Depolar     --     0.0000                 0.0000                 0.0000
 Atom AN      X      Y      Z        X      Y      Z        X      Y      Z
   1   8    -0.22  -0.03   0.05     0.03   0.01   0.12     0.07  -0.08   0.63
   2   8     0.01   0.01  -0.02     0.02  -0.01  -0.03     0.02  -0.01  -0.00
   3   8    -0.02   0.16  -0.20     0.06   0.06  -0.48     0.11   0.28   0.12
   4   6     0.03  -0.01   0.06     0.04  -0.01   0.06     0.00   0.01  -0.01
   5   6    -0.09   0.02  -0.04    -0.05   0.08  -0.03     0.04   0.12   0.15
   6   6     0.00   0.01  -0.01    -0.02   0.02   0.00     0.00   0.00  -0.02
   7   6    -0.11  -0.01  -0.14    -0.10   0.14  -0.04    -0.10   0.17  -0.12
   8   1     0.02   0.02  -0.02    -0.01   0.03   0.01     0.01  -0.00  -0.02
   9   1    -0.03  -0.00  -0.02     0.00  -0.01   0.00    -0.01   0.00  -0.01
  10   1    -0.00  -0.00   0.01    -0.02   0.00  -0.02     0.01  -0.00   0.01
  11   1    -0.01  -0.00  -0.04    -0.04   0.04  -0.01    -0.04   0.07  -0.06
  12   1    -0.02   0.01  -0.07    -0.02   0.06  -0.03     0.00   0.11  -0.07
  13   1    -0.05   0.08   0.02    -0.07   0.10   0.01    -0.01  -0.07  -0.05
  14   1    -0.01  -0.15  -0.48    -0.03   0.15   0.05    -0.00   0.13   0.08
  15   8    -0.12   0.16  -0.06    -0.17   0.17  -0.14    -0.02  -0.23  -0.20
  16   7    -0.00   0.01   0.00    -0.13   0.01  -0.01    -0.04   0.07   0.07
  17   6     0.11  -0.11   0.11     0.11  -0.14   0.14    -0.08   0.01   0.02
  18   6     0.09  -0.06   0.15     0.11  -0.09   0.16    -0.01  -0.11  -0.08
  19   6     0.10  -0.12   0.08     0.11  -0.16   0.09    -0.08  -0.01  -0.12
  20   6     0.03  -0.00   0.06     0.05  -0.03   0.05     0.02  -0.13  -0.21
  21   6     0.04   0.00   0.13     0.08  -0.02   0.14     0.06  -0.09  -0.13
  22   6     0.07  -0.08   0.02     0.09  -0.11   0.02    -0.01  -0.02  -0.15
  23   1     0.03  -0.01   0.06     0.03  -0.03   0.07    -0.01  -0.04  -0.05
  24   1     0.02  -0.06   0.02     0.03  -0.06   0.02    -0.02  -0.02  -0.04
  25   1     0.00   0.01   0.05     0.02   0.01   0.05     0.02  -0.00  -0.03
  26   1     0.02  -0.03  -0.01     0.02  -0.03  -0.01     0.01   0.00  -0.02
  27   1    -0.07   0.00  -0.04    -0.05   0.03  -0.01    -0.11   0.01  -0.04
  28   1    -0.02  -0.02  -0.02    -0.06  -0.02  -0.03    -0.02   0.01   0.02
  29   1     0.59   0.10  -0.01    -0.56  -0.14   0.04     0.15  -0.11   0.13
                     16                     17                     18
                        a                      a                      a 
 Frequencies --   333.9304               367.4005               376.8444
 Red. masses --    10.7611                 7.6659                 7.4583
 Frc consts  --     0.0000                 0.0000                 0.0000
 IR Inten    --    18.3955               134.6315                55.1013
 Raman Activ --     0.0000                 0.0000                 0.0000
 Depolar     --     0.0000                 0.0000                 0.0000
 Atom AN      X      Y      Z        X      Y      Z        X      Y      Z
   1   8    -0.21  -0.08   0.19     0.17   0.09  -0.01     0.05  -0.01  -0.03
   2   8    -0.01  -0.01  -0.01     0.04  -0.02  -0.01     0.00   0.02   0.01
   3   8    -0.07  -0.07  -0.11    -0.18  -0.03  -0.01     0.00   0.02   0.02
   4   6    -0.01   0.00   0.03     0.02   0.00   0.00     0.01  -0.02  -0.02
   5   6    -0.06   0.01   0.00    -0.10   0.05  -0.01    -0.00  -0.02  -0.02
   6   6     0.01  -0.00  -0.01     0.00   0.01   0.00    -0.01  -0.00   0.00
   7   6    -0.01   0.08   0.33     0.06  -0.15  -0.03     0.00  -0.04  -0.03
   8   1     0.01   0.00  -0.01     0.00   0.01  -0.00    -0.01   0.00   0.00
   9   1    -0.00  -0.01  -0.01    -0.00   0.01  -0.00    -0.00   0.01   0.00
  10   1     0.01   0.01  -0.00    -0.00  -0.00   0.00    -0.01  -0.01   0.00
  11   1    -0.03  -0.03   0.17     0.09  -0.01  -0.04     0.00  -0.01  -0.01
  12   1    -0.01   0.00   0.12    -0.01  -0.12   0.01     0.00  -0.01  -0.01
  13   1     0.06  -0.01  -0.05     0.05   0.19  -0.05    -0.39  -0.16   0.18
  14   1    -0.01  -0.11  -0.19    -0.06   0.21   0.44    -0.01   0.10   0.17
  15   8     0.22   0.01  -0.16    -0.08   0.19  -0.23     0.09   0.13  -0.11
  16   7     0.17   0.14   0.00    -0.27   0.05  -0.01    -0.07  -0.01  -0.01
  17   6     0.30   0.20  -0.13     0.09   0.09  -0.04    -0.00   0.02  -0.01
  18   6     0.19   0.07  -0.11     0.04  -0.03  -0.04     0.32   0.18  -0.16
  19   6     0.13   0.11  -0.13     0.21   0.14  -0.05    -0.30  -0.14   0.15
  20   6    -0.21  -0.16   0.01    -0.06  -0.19   0.13    -0.00  -0.05   0.05
  21   6    -0.24  -0.17   0.06     0.08  -0.13   0.07    -0.27  -0.19   0.15
  22   6    -0.20  -0.09   0.02    -0.11  -0.18   0.17     0.26   0.11  -0.06
  23   1     0.07   0.03  -0.06    -0.00  -0.02  -0.03     0.19   0.10  -0.10
  24   1     0.04   0.02  -0.04     0.11   0.09  -0.03    -0.16  -0.07   0.08
  25   1    -0.12  -0.06   0.04     0.05  -0.05   0.00    -0.16  -0.11   0.08
  26   1    -0.08  -0.04   0.03    -0.05  -0.06   0.10     0.16   0.08  -0.04
  27   1     0.06   0.12   0.11     0.05  -0.06  -0.02    -0.01  -0.01  -0.01
  28   1     0.04   0.03  -0.01    -0.11  -0.01  -0.00    -0.02   0.00   0.00
  29   1    -0.10  -0.07   0.04     0.31   0.07  -0.01     0.10   0.02  -0.01
                     19                     20                     21
                        a                      a                      a 
 Frequencies --   392.8547               399.5216               406.6618
 Red. masses --     8.5158                 4.5346                10.3654
 Frc consts  --     0.0000                 0.0000                 0.0000
 IR Inten    --    49.6234               132.0795                26.6599
 Raman Activ --     0.0000                 0.0000                 0.0000
 Depolar     --     0.0000                 0.0000                 0.0000
 Atom AN      X      Y      Z        X      Y      Z        X      Y      Z
   1   8    -0.05  -0.20  -0.11    -0.04  -0.05  -0.02     0.23   0.30   0.05
   2   8     0.01   0.05   0.01     0.00  -0.01  -0.00     0.02  -0.02  -0.01
   3   8     0.21   0.17  -0.14     0.03   0.02  -0.07    -0.16   0.01   0.01
   4   6     0.03  -0.03  -0.02    -0.00   0.01   0.01     0.01   0.01   0.01
   5   6     0.03  -0.17  -0.02    -0.00  -0.04  -0.01    -0.11   0.14   0.12
   6   6    -0.03  -0.00   0.01     0.00   0.00   0.00     0.00   0.01   0.00
   7   6    -0.23   0.09   0.03    -0.06   0.03   0.03     0.09  -0.17  -0.19
   8   1    -0.01   0.01   0.01     0.00   0.00  -0.00     0.00   0.01   0.00
   9   1    -0.01   0.02   0.01     0.00  -0.00  -0.00     0.00  -0.00   0.00
  10   1    -0.03  -0.02   0.01     0.00   0.00  -0.00     0.00   0.00  -0.00
  11   1    -0.18   0.00   0.03    -0.05  -0.00   0.02     0.18   0.03  -0.14
  12   1    -0.01   0.16  -0.01    -0.01   0.04   0.01    -0.02  -0.16  -0.08
  13   1     0.28   0.02  -0.09    -0.62  -0.39   0.29     0.06  -0.16  -0.03
  14   1    -0.05   0.30   0.28    -0.02   0.08   0.09    -0.02  -0.10  -0.16
  15   8     0.15  -0.05   0.27     0.24   0.06  -0.00     0.25  -0.16   0.09
  16   7    -0.05  -0.21  -0.00     0.01  -0.04  -0.00    -0.26  -0.05   0.11
  17   6     0.11  -0.10  -0.03     0.07  -0.01  -0.01     0.12  -0.08   0.12
  18   6     0.10   0.09   0.02    -0.14  -0.07   0.10     0.20   0.02   0.09
  19   6     0.13  -0.08  -0.01     0.18   0.05  -0.07     0.13  -0.10  -0.04
  20   6    -0.20   0.14   0.04    -0.01   0.07  -0.03    -0.25   0.05  -0.09
  21   6    -0.21   0.13  -0.01     0.13   0.15  -0.09    -0.17   0.10  -0.01
  22   6    -0.07   0.05  -0.07    -0.25  -0.10   0.06    -0.16   0.05  -0.15
  23   1     0.07   0.05   0.05    -0.10  -0.05   0.07     0.10   0.03   0.06
  24   1     0.05  -0.03  -0.01     0.07   0.02  -0.03     0.07  -0.08  -0.05
  25   1    -0.07   0.05   0.01     0.07   0.08  -0.04    -0.06   0.09   0.03
  26   1    -0.03   0.00  -0.10    -0.15  -0.07   0.03    -0.05   0.01  -0.11
  27   1    -0.12   0.04   0.02    -0.02   0.02   0.01     0.00  -0.15  -0.08
  28   1    -0.01  -0.06   0.00     0.00  -0.01  -0.01    -0.09  -0.03  -0.00
  29   1     0.20   0.00  -0.03     0.07   0.00  -0.01    -0.11   0.06   0.02
                     22                     23                     24
                        a                      a                      a 
 Frequencies --   424.3740               438.4664               499.9734
 Red. masses --    10.0954                10.6477                 9.3384
 Frc consts  --     0.0000                 0.0000                 0.0000
 IR Inten    --    38.9449                74.0849                 5.5763
 Raman Activ --     0.0000                 0.0000                 0.0000
 Depolar     --     0.0000                 0.0000                 0.0000
 Atom AN      X      Y      Z        X      Y      Z        X      Y      Z
   1   8     0.16  -0.06  -0.13     0.01   0.01   0.01     0.14  -0.00  -0.11
   2   8     0.02  -0.07  -0.01     0.03   0.53   0.09     0.01  -0.01  -0.00
   3   8     0.27   0.19   0.25     0.01  -0.00   0.04     0.05   0.11   0.04
   4   6    -0.04   0.06  -0.00     0.37  -0.44  -0.20     0.00   0.01  -0.01
   5   6     0.10  -0.17   0.10     0.02   0.00   0.02    -0.04  -0.10   0.06
   6   6     0.02   0.02  -0.00    -0.24  -0.18   0.05    -0.00   0.01   0.00
   7   6    -0.17   0.01  -0.10     0.00   0.01  -0.01    -0.11  -0.12   0.01
   8   1     0.01  -0.01  -0.00    -0.11   0.07   0.06    -0.00  -0.00   0.00
   9   1     0.02  -0.00   0.00    -0.11   0.13   0.06     0.00   0.00   0.00
  10   1     0.03   0.03  -0.00    -0.27  -0.29   0.04    -0.00   0.00   0.00
  11   1    -0.10   0.02  -0.07     0.01   0.00  -0.01    -0.03  -0.03  -0.01
  12   1     0.00   0.11  -0.10     0.00   0.00  -0.01    -0.02  -0.02  -0.03
  13   1    -0.06   0.07   0.04    -0.02   0.00   0.00     0.02   0.00  -0.03
  14   1     0.03  -0.10  -0.34     0.01  -0.05  -0.07    -0.03   0.05  -0.05
  15   8     0.02   0.17  -0.09     0.00   0.01  -0.03    -0.11  -0.12  -0.02
  16   7    -0.26  -0.24   0.11    -0.02   0.00   0.01    -0.14   0.02   0.10
  17   6    -0.08   0.06  -0.10    -0.00   0.03  -0.00     0.41   0.27  -0.12
  18   6     0.02   0.12  -0.16    -0.02  -0.00  -0.01    -0.03  -0.04   0.05
  19   6     0.12   0.19  -0.08     0.02   0.04  -0.02    -0.11  -0.01   0.05
  20   6    -0.10  -0.14   0.18    -0.00  -0.03   0.00     0.42   0.19  -0.23
  21   6     0.00  -0.09   0.03     0.02  -0.01  -0.00    -0.09  -0.07   0.06
  22   6    -0.02  -0.08   0.14    -0.02  -0.01   0.02    -0.11  -0.00   0.03
  23   1     0.03   0.04  -0.08    -0.01  -0.01  -0.01    -0.20  -0.12   0.09
  24   1     0.05   0.11  -0.02     0.01   0.02  -0.01    -0.19  -0.11   0.08
  25   1     0.04  -0.06  -0.02     0.01  -0.00  -0.00    -0.22  -0.11   0.11
  26   1     0.01  -0.01   0.07    -0.01  -0.00   0.02    -0.21  -0.10   0.11
  27   1    -0.17  -0.06  -0.03    -0.01  -0.00  -0.00    -0.07  -0.05   0.00
  28   1    -0.05  -0.05   0.07    -0.06  -0.01   0.02    -0.07  -0.02   0.04
  29   1    -0.20  -0.01  -0.01    -0.04  -0.00   0.00    -0.02   0.03  -0.02
                     25                     26                     27
                        a                      a                      a 
 Frequencies --   511.3647               539.5787               580.6655
 Red. masses --    12.4977                11.0499                11.8731
 Frc consts  --     0.0000                 0.0000                 0.0000
 IR Inten    --    94.3140                35.9147                26.7177
 Raman Activ --     0.0000                 0.0000                 0.0000
 Depolar     --     0.0000                 0.0000                 0.0000
 Atom AN      X      Y      Z        X      Y      Z        X      Y      Z
   1   8     0.26  -0.09   0.27    -0.33  -0.06   0.06     0.20  -0.30  -0.17
   2   8    -0.01   0.01  -0.01     0.04  -0.03  -0.00     0.01  -0.01  -0.00
   3   8    -0.23   0.22   0.20     0.10  -0.29   0.17    -0.05   0.17   0.24
   4   6     0.01  -0.01   0.02     0.00   0.03  -0.01    -0.00   0.01  -0.00
   5   6    -0.13   0.07  -0.18     0.27   0.12  -0.09    -0.03  -0.10  -0.26
   6   6    -0.01   0.00  -0.01     0.00   0.02  -0.00    -0.00   0.01  -0.00
   7   6     0.04  -0.01   0.03     0.27   0.31  -0.11    -0.04  -0.03   0.03
   8   1    -0.00   0.01  -0.00     0.00  -0.00   0.00    -0.00  -0.00  -0.00
   9   1    -0.01  -0.00  -0.01     0.00   0.01   0.00     0.00   0.00   0.00
  10   1    -0.01  -0.00  -0.00     0.00   0.01   0.00     0.00   0.00   0.00
  11   1     0.04  -0.03   0.05     0.02   0.07  -0.02    -0.09  -0.08   0.10
  12   1    -0.03  -0.08   0.05     0.10   0.15  -0.04    -0.01   0.01   0.06
  13   1    -0.01   0.06   0.07     0.00   0.02   0.01    -0.01  -0.01  -0.04
  14   1    -0.04  -0.03  -0.09     0.16  -0.20   0.10    -0.01  -0.02  -0.07
  15   8    -0.03   0.24   0.27    -0.02   0.05   0.05    -0.02  -0.07  -0.18
  16   7     0.00  -0.11  -0.29    -0.43  -0.00  -0.10    -0.09   0.29  -0.13
  17   6     0.08  -0.17  -0.27     0.10  -0.04  -0.04     0.04  -0.01   0.20
  18   6    -0.07   0.00  -0.17     0.06  -0.06  -0.04     0.12  -0.27   0.12
  19   6     0.09  -0.16   0.01     0.09  -0.05   0.07     0.05   0.04   0.30
  20   6     0.07   0.18   0.14     0.05   0.09  -0.01    -0.16  -0.07  -0.07
  21   6    -0.11   0.04  -0.14    -0.08   0.00  -0.06     0.03   0.01  -0.10
  22   6     0.07  -0.14   0.04    -0.05  -0.00   0.02    -0.08   0.31   0.03
  23   1    -0.03  -0.00   0.01    -0.02  -0.04   0.04     0.08  -0.05   0.03
  24   1    -0.02  -0.01   0.04    -0.01  -0.05   0.03     0.06  -0.03   0.04
  25   1    -0.05  -0.07  -0.05    -0.07  -0.02   0.01     0.04   0.10  -0.02
  26   1    -0.03  -0.07  -0.04    -0.07  -0.03  -0.00     0.03   0.11  -0.01
  27   1     0.10   0.06   0.01     0.05   0.10  -0.02     0.07   0.10   0.03
  28   1     0.02  -0.03  -0.11    -0.24  -0.09   0.02    -0.13   0.01   0.01
  29   1    -0.03  -0.20   0.04     0.03  -0.03   0.00    -0.02  -0.15  -0.05
                     28                     29                     30
                        a                      a                      a 
 Frequencies --   623.1909               661.3657               747.6870
 Red. masses --    11.3100                11.4260                10.9507
 Frc consts  --     0.0000                 0.0000                 0.0000
 IR Inten    --    12.3843                 0.9871               103.1423
 Raman Activ --     0.0000                 0.0000                 0.0000
 Depolar     --     0.0000                 0.0000                 0.0000
 Atom AN      X      Y      Z        X      Y      Z        X      Y      Z
   1   8    -0.08   0.18   0.08     0.03  -0.07  -0.03     0.01  -0.07   0.04
   2   8    -0.01   0.01   0.00    -0.01   0.01   0.00    -0.02   0.02   0.00
   3   8     0.08  -0.09  -0.13    -0.05   0.03   0.01    -0.18   0.05  -0.05
   4   6     0.00  -0.01   0.00    -0.00  -0.01   0.00    -0.00  -0.02   0.01
   5   6     0.00   0.01   0.21    -0.02   0.01  -0.08    -0.04   0.04  -0.08
   6   6     0.00  -0.01   0.00    -0.00  -0.01  -0.00     0.00  -0.02  -0.00
   7   6    -0.04  -0.06   0.02     0.02   0.03  -0.02     0.17   0.18  -0.08
   8   1     0.00   0.01   0.00     0.00   0.00  -0.00    -0.00   0.01   0.00
   9   1    -0.00  -0.01  -0.00    -0.00  -0.00  -0.00    -0.01  -0.01  -0.01
  10   1    -0.00  -0.00  -0.00    -0.00  -0.00  -0.00    -0.00  -0.00  -0.00
  11   1     0.03   0.03  -0.05    -0.01  -0.01   0.02     0.07   0.05  -0.02
  12   1    -0.01  -0.02  -0.03     0.00   0.00   0.02     0.04   0.03  -0.02
  13   1    -0.04   0.08   0.03    -0.00  -0.01  -0.01     0.00  -0.03  -0.06
  14   1    -0.00   0.03   0.01    -0.01  -0.00  -0.01    -0.02  -0.00  -0.00
  15   8    -0.09   0.14  -0.01    -0.05  -0.08  -0.03     0.01  -0.22  -0.28
  16   7     0.15  -0.14   0.07     0.05  -0.01  -0.03    -0.03  -0.52  -0.01
  17   6     0.02  -0.08  -0.03    -0.43  -0.22   0.22     0.07  -0.01  -0.11
  18   6     0.10  -0.34  -0.25     0.26   0.13  -0.05    -0.07   0.21   0.07
  19   6     0.13   0.07   0.33     0.25   0.17  -0.08     0.04   0.10   0.23
  20   6     0.00   0.08  -0.01     0.40   0.20  -0.21    -0.07  -0.09  -0.01
  21   6    -0.16  -0.12  -0.44    -0.23  -0.13   0.16     0.08   0.11   0.14
  22   6    -0.10   0.29   0.17    -0.27  -0.07   0.12    -0.00   0.25   0.13
  23   1     0.04  -0.09  -0.05     0.11   0.06  -0.03    -0.10   0.01   0.09
  24   1     0.04   0.01   0.09     0.09   0.05  -0.03    -0.06   0.04   0.10
  25   1    -0.05  -0.05  -0.12    -0.07  -0.02   0.06    -0.06   0.01   0.08
  26   1    -0.05   0.07   0.02    -0.09  -0.03   0.06    -0.05   0.05   0.11
  27   1    -0.08  -0.09  -0.01     0.04   0.04  -0.00     0.08   0.06  -0.03
  28   1     0.13   0.03  -0.01     0.06   0.04  -0.01     0.30   0.09  -0.09
  29   1    -0.00   0.12   0.03     0.00  -0.05  -0.01     0.03  -0.11  -0.00
                     31                     32                     33
                        a                      a                      a 
 Frequencies --   799.9312               824.0238               858.1661
 Red. masses --     5.4438                11.5340                 3.3688
 Frc consts  --     0.0000                 0.0000                 0.0000
 IR Inten    --    48.8150                15.8604                 3.6160
 Raman Activ --     0.0000                 0.0000                 0.0000
 Depolar     --     0.0000                 0.0000                 0.0000
 Atom AN      X      Y      Z        X      Y      Z        X      Y      Z
   1   8     0.01  -0.02  -0.02     0.05  -0.25  -0.14     0.00  -0.03  -0.02
   2   8    -0.00   0.00   0.00    -0.01   0.01   0.00    -0.00  -0.01   0.00
   3   8     0.00   0.01   0.00    -0.24   0.09  -0.05    -0.02   0.00  -0.00
   4   6     0.00   0.00  -0.00    -0.00  -0.01  -0.01     0.00   0.00  -0.00
   5   6     0.00   0.01  -0.01    -0.06  -0.04   0.05    -0.01  -0.01   0.03
   6   6    -0.00  -0.00   0.00     0.00  -0.02   0.01    -0.00   0.01  -0.00
   7   6    -0.01  -0.02  -0.01     0.23   0.25  -0.07     0.01   0.04   0.01
   8   1     0.00  -0.00  -0.00     0.00   0.01   0.00     0.00  -0.00  -0.00
   9   1     0.00  -0.00  -0.00    -0.01  -0.01  -0.01     0.00   0.00   0.00
  10   1     0.00   0.00   0.00     0.00  -0.00  -0.01     0.00   0.01   0.00
  11   1    -0.02  -0.02   0.01     0.09   0.09  -0.04     0.03   0.02  -0.01
  12   1    -0.00  -0.00   0.01     0.07   0.08  -0.03     0.00   0.00  -0.00
  13   1     0.01   0.02   0.01    -0.00   0.05   0.06    -0.00  -0.00  -0.00
  14   1     0.00   0.00   0.01    -0.09   0.05  -0.03    -0.02   0.01  -0.02
  15   8     0.05   0.10   0.07    -0.01   0.22   0.27    -0.01  -0.02  -0.01
  16   7     0.04   0.08   0.02    -0.05  -0.15   0.28     0.02   0.01   0.01
  17   6    -0.24  -0.09   0.15     0.07   0.16   0.11     0.03   0.02  -0.02
  18   6     0.27   0.03  -0.09     0.13  -0.31   0.04     0.15   0.11  -0.08
  19   6     0.08   0.07  -0.14    -0.19   0.08  -0.26    -0.14  -0.10   0.09
  20   6    -0.22  -0.11   0.10     0.02   0.01  -0.02     0.04   0.03  -0.02
  21   6     0.22   0.07  -0.11     0.05  -0.18  -0.01     0.11   0.08  -0.07
  22   6     0.13   0.06  -0.11    -0.10   0.03  -0.13    -0.24  -0.15   0.13
  23   1    -0.37  -0.24   0.15     0.08  -0.07  -0.09    -0.34  -0.18   0.15
  24   1    -0.22  -0.14   0.07     0.00  -0.02  -0.12     0.32   0.19  -0.14
  25   1    -0.38  -0.22   0.17     0.06   0.00  -0.01    -0.23  -0.12   0.09
  26   1    -0.25  -0.14   0.10     0.02   0.04  -0.03     0.50   0.27  -0.23
  27   1     0.01   0.01   0.00     0.07   0.05  -0.03    -0.00  -0.01  -0.00
  28   1     0.02   0.04   0.01     0.20   0.13   0.01    -0.04  -0.03   0.02
  29   1    -0.00   0.00  -0.00     0.01  -0.06  -0.03     0.00   0.00  -0.00
                     34                     35                     36
                        a                      a                      a 
 Frequencies --   868.9074               886.0583               896.7647
 Red. masses --     7.3205                 3.0057                10.1037
 Frc consts  --     0.0000                 0.0000                 0.0000
 IR Inten    --    44.6017                 2.9178                81.4534
 Raman Activ --     0.0000                 0.0000                 0.0000
 Depolar     --     0.0000                 0.0000                 0.0000
 Atom AN      X      Y      Z        X      Y      Z        X      Y      Z
   1   8    -0.04   0.11   0.06     0.00   0.03   0.02    -0.04   0.30   0.19
   2   8    -0.02   0.02   0.01     0.00   0.00  -0.00     0.03   0.01  -0.01
   3   8     0.37  -0.11   0.10    -0.04   0.02  -0.01    -0.03   0.02  -0.02
   4   6    -0.01  -0.03  -0.01     0.00   0.01   0.00     0.02   0.03   0.06
   5   6    -0.10   0.19  -0.17     0.03  -0.02  -0.01     0.14  -0.09  -0.19
   6   6     0.02  -0.04   0.03    -0.01   0.00  -0.00    -0.06   0.01  -0.07
   7   6    -0.22  -0.15   0.03     0.02  -0.02  -0.01    -0.07  -0.15  -0.04
   8   1     0.01   0.07   0.00    -0.00  -0.01  -0.00    -0.03  -0.15   0.00
   9   1    -0.03  -0.04  -0.02     0.00   0.00   0.00     0.04   0.06   0.03
  10   1    -0.01  -0.01  -0.03     0.00   0.00   0.01     0.03   0.02   0.06
  11   1    -0.05  -0.06   0.04    -0.03  -0.02   0.01    -0.13  -0.11   0.07
  12   1    -0.09  -0.11   0.05     0.01   0.02  -0.00    -0.00   0.02   0.03
  13   1     0.00   0.01   0.02    -0.00  -0.00   0.00    -0.00   0.04   0.04
  14   1     0.17  -0.10   0.07    -0.01   0.00   0.01     0.03  -0.03   0.03
  15   8    -0.00   0.06   0.08    -0.01   0.01   0.01     0.00   0.11   0.14
  16   7    -0.26  -0.01  -0.14     0.03  -0.02   0.00     0.13  -0.27  -0.17
  17   6     0.04   0.05   0.00     0.01   0.00  -0.01     0.02  -0.06  -0.07
  18   6     0.09  -0.10   0.07     0.22   0.11  -0.10     0.08  -0.15   0.09
  19   6    -0.04   0.02  -0.08     0.04   0.04  -0.03    -0.15   0.17  -0.15
  20   6     0.00   0.01  -0.02    -0.02  -0.02   0.01     0.01  -0.06  -0.06
  21   6     0.06  -0.05   0.10    -0.24  -0.15   0.12     0.21  -0.12   0.22
  22   6    -0.09   0.01  -0.05    -0.00   0.02  -0.01    -0.23   0.28  -0.06
  23   1    -0.01  -0.05   0.01    -0.46  -0.26   0.20     0.07  -0.03  -0.04
  24   1    -0.01  -0.02  -0.03    -0.20  -0.11   0.09    -0.05   0.01  -0.05
  25   1     0.03   0.03   0.03     0.54   0.29  -0.24    -0.02  -0.03   0.11
  26   1     0.08   0.06  -0.06     0.08   0.05  -0.03     0.03   0.14   0.04
  27   1     0.01  -0.00   0.01    -0.00   0.01   0.00     0.02   0.05   0.01
  28   1     0.44   0.40  -0.22    -0.03  -0.03   0.02    -0.22  -0.28   0.03
  29   1     0.03  -0.07  -0.00    -0.01   0.01   0.00    -0.01  -0.03   0.03
                     37                     38                     39
                        a                      a                      a 
 Frequencies --   910.4294               917.3132               939.1982
 Red. masses --     5.3435                 3.8668                 6.8721
 Frc consts  --     0.0000                 0.0000                 0.0000
 IR Inten    --    35.6971                 5.4346                69.5311
 Raman Activ --     0.0000                 0.0000                 0.0000
 Depolar     --     0.0000                 0.0000                 0.0000
 Atom AN      X      Y      Z        X      Y      Z        X      Y      Z
   1   8     0.00  -0.04  -0.04    -0.01  -0.04  -0.02    -0.00   0.24   0.13
   2   8     0.13   0.11  -0.06    -0.00  -0.01  -0.00     0.00   0.01   0.00
   3   8     0.04  -0.01   0.01     0.11  -0.04   0.03    -0.26   0.09  -0.04
   4   6     0.12   0.11   0.27     0.00  -0.00   0.01    -0.00  -0.00  -0.01
   5   6    -0.05   0.02   0.00    -0.08   0.07   0.01     0.25  -0.26  -0.14
   6   6    -0.32  -0.14  -0.30     0.00   0.01  -0.01    -0.01  -0.03   0.01
   7   6    -0.00   0.03   0.01    -0.08   0.07   0.04     0.16  -0.23  -0.08
   8   1    -0.15  -0.65  -0.00    -0.00  -0.01   0.00     0.00   0.00  -0.00
   9   1     0.16   0.15   0.12     0.01   0.01   0.00    -0.01  -0.03  -0.01
  10   1     0.15   0.11   0.22     0.00   0.00   0.01     0.01   0.01  -0.01
  11   1     0.03   0.02  -0.01     0.11   0.06  -0.03    -0.34  -0.20   0.12
  12   1    -0.01  -0.02  -0.00    -0.07  -0.10   0.03     0.20   0.31  -0.04
  13   1     0.00  -0.01  -0.01    -0.00   0.00   0.01     0.00  -0.01  -0.01
  14   1     0.01  -0.00   0.00     0.00   0.00  -0.02     0.00  -0.04   0.01
  15   8    -0.00  -0.02  -0.02     0.01   0.03   0.03     0.00  -0.02  -0.03
  16   7    -0.05   0.04   0.05     0.03  -0.04  -0.06    -0.13   0.06   0.08
  17   6    -0.00   0.02   0.02     0.00  -0.02  -0.02    -0.00   0.06   0.05
  18   6    -0.01   0.01  -0.01     0.13   0.03  -0.03     0.03   0.00  -0.01
  19   6     0.03  -0.03   0.02    -0.28  -0.11   0.09    -0.05  -0.09   0.06
  20   6    -0.00   0.02   0.01     0.01  -0.01  -0.02     0.00   0.04   0.02
  21   6    -0.04   0.02  -0.05    -0.05  -0.07   0.09    -0.07   0.03  -0.07
  22   6     0.04  -0.07   0.01     0.16   0.17  -0.11     0.12  -0.09  -0.01
  23   1    -0.00   0.01   0.00    -0.13  -0.09   0.06    -0.02  -0.01   0.03
  24   1     0.01  -0.01   0.01     0.52   0.31  -0.25     0.22   0.11  -0.09
  25   1    -0.00   0.00  -0.02     0.10   0.05  -0.02    -0.01   0.02  -0.02
  26   1     0.00  -0.03  -0.02    -0.40  -0.19   0.19    -0.10  -0.10   0.02
  27   1     0.01  -0.01  -0.00     0.02  -0.03  -0.01    -0.07   0.11   0.04
  28   1     0.10   0.11   0.00    -0.06  -0.06  -0.02     0.21   0.22   0.02
  29   1     0.00  -0.02  -0.01     0.01  -0.04  -0.01    -0.04   0.11   0.04
                     40                     41                     42
                        a                      a                      a 
 Frequencies --   959.3290               969.0869              1009.2310
 Red. masses --     7.6114                 6.9051                 7.8621
 Frc consts  --     0.0000                 0.0000                 0.0000
 IR Inten    --     9.9891                49.7377                15.5097
 Raman Activ --     0.0000                 0.0000                 0.0000
 Depolar     --     0.0000                 0.0000                 0.0000
 Atom AN      X      Y      Z        X      Y      Z        X      Y      Z
   1   8     0.00  -0.03  -0.01    -0.01   0.16   0.07     0.01  -0.01   0.04
   2   8     0.27   0.18  -0.03     0.04   0.02   0.00    -0.01  -0.00   0.00
   3   8    -0.03   0.01  -0.01     0.20  -0.09   0.04     0.07  -0.08   0.06
   4   6     0.02   0.32  -0.11    -0.01   0.05  -0.04     0.01  -0.02   0.00
   5   6     0.02   0.01   0.04    -0.18  -0.10  -0.17    -0.10  -0.18   0.12
   6   6    -0.33  -0.40   0.24    -0.04  -0.06   0.05     0.00   0.01  -0.00
   7   6     0.01  -0.01   0.05    -0.09   0.11  -0.34     0.07   0.08  -0.11
   8   1     0.07   0.01  -0.10     0.02   0.02  -0.02    -0.00  -0.01  -0.00
   9   1    -0.13  -0.57  -0.12    -0.03  -0.09  -0.02     0.01   0.01   0.00
  10   1     0.08   0.16  -0.13     0.01   0.02  -0.03     0.01   0.01   0.00
  11   1     0.01   0.03  -0.03    -0.03  -0.15   0.16    -0.01  -0.03   0.04
  12   1     0.02   0.02  -0.03    -0.14  -0.18   0.18     0.01   0.02   0.03
  13   1     0.00   0.00   0.00    -0.00  -0.00  -0.01     0.00   0.01   0.01
  14   1     0.00  -0.01   0.00    -0.08   0.10  -0.04    -0.18   0.15  -0.09
  15   8     0.00   0.01   0.01    -0.00  -0.03  -0.04    -0.00   0.08   0.09
  16   7     0.01   0.02  -0.06     0.03  -0.11   0.31    -0.06   0.13  -0.04
  17   6    -0.00  -0.03  -0.02     0.01   0.06   0.07    -0.02  -0.04  -0.07
  18   6    -0.00   0.01   0.00     0.00  -0.02  -0.00    -0.17   0.20  -0.14
  19   6    -0.00   0.00   0.00    -0.03   0.02  -0.02     0.20  -0.20   0.19
  20   6    -0.00  -0.00  -0.01     0.00   0.02   0.03    -0.01  -0.06  -0.09
  21   6     0.03  -0.01   0.04    -0.10   0.05  -0.16     0.21  -0.20   0.22
  22   6    -0.03   0.04  -0.01     0.08  -0.12   0.06    -0.19   0.22  -0.17
  23   1    -0.00  -0.00  -0.01     0.01   0.01   0.03    -0.10   0.01  -0.21
  24   1     0.00  -0.00  -0.00    -0.01   0.04   0.01     0.10  -0.20  -0.02
  25   1     0.00  -0.01   0.01    -0.03   0.02  -0.04     0.10  -0.20  -0.01
  26   1    -0.01   0.01  -0.00     0.04  -0.02   0.03    -0.12   0.01  -0.25
  27   1    -0.06  -0.05   0.01     0.43   0.36  -0.06     0.13   0.12  -0.01
  28   1    -0.03  -0.04  -0.03    -0.06  -0.07   0.13     0.05   0.10  -0.02
  29   1     0.00   0.01   0.00    -0.00   0.03   0.01    -0.04   0.23   0.05
                     43                     44                     45
                        a                      a                      a 
 Frequencies --  1038.8120              1065.8425              1088.2303
 Red. masses --     7.4848                 7.1994                 7.6332
 Frc consts  --     0.0000                 0.0000                 0.0000
 IR Inten    --    71.9596               187.9275               469.4176
 Raman Activ --     0.0000                 0.0000                 0.0000
 Depolar     --     0.0000                 0.0000                 0.0000
 Atom AN      X      Y      Z        X      Y      Z        X      Y      Z
   1   8    -0.01   0.02  -0.10    -0.01   0.04   0.01    -0.09   0.34   0.07
   2   8     0.01  -0.00   0.00     0.08  -0.02  -0.04    -0.01   0.00   0.01
   3   8    -0.10   0.14  -0.10     0.02  -0.02   0.01     0.08  -0.11   0.08
   4   6    -0.01   0.02  -0.02    -0.15   0.51   0.16     0.01  -0.06  -0.04
   5   6     0.15   0.26  -0.21    -0.03  -0.04  -0.04    -0.03  -0.39  -0.38
   6   6     0.00  -0.01   0.01     0.18  -0.43  -0.15    -0.01   0.05   0.03
   7   6    -0.14  -0.11   0.03     0.02   0.01   0.02     0.05   0.15   0.20
   8   1     0.00   0.01  -0.00    -0.08   0.12   0.08     0.01   0.00  -0.01
   9   1    -0.01  -0.01  -0.01    -0.06   0.22   0.02    -0.01  -0.04  -0.01
  10   1    -0.00  -0.00  -0.00    -0.31  -0.51   0.00     0.03   0.05  -0.00
  11   1    -0.04  -0.03   0.02     0.01   0.02  -0.02     0.21   0.19  -0.15
  12   1    -0.05  -0.06   0.02     0.01   0.01  -0.02     0.00  -0.04  -0.11
  13   1    -0.00   0.01   0.01    -0.00   0.02   0.01     0.02  -0.07  -0.05
  14   1     0.29  -0.23   0.15    -0.04   0.04  -0.02    -0.22   0.18  -0.09
  15   8    -0.00   0.04   0.04     0.00  -0.01  -0.00    -0.01   0.03   0.01
  16   7     0.07  -0.08   0.40     0.01   0.02   0.02    -0.01   0.06   0.06
  17   6     0.01   0.07   0.10    -0.00  -0.01  -0.00    -0.05   0.05   0.01
  18   6    -0.14   0.16  -0.11     0.00   0.01  -0.00     0.01  -0.01   0.01
  19   6     0.11  -0.12   0.13    -0.00  -0.00   0.00     0.04  -0.02   0.04
  20   6     0.01  -0.03  -0.03     0.00   0.01   0.01    -0.02   0.00  -0.03
  21   6     0.05  -0.12  -0.03     0.00  -0.00   0.00     0.01  -0.01  -0.01
  22   6    -0.06   0.05  -0.08    -0.01   0.01  -0.01     0.03  -0.04   0.01
  23   1    -0.08   0.01  -0.16    -0.01  -0.00   0.00    -0.00  -0.01  -0.01
  24   1     0.09  -0.12  -0.02     0.01  -0.01  -0.01    -0.01  -0.06   0.01
  25   1     0.06  -0.18  -0.08     0.00  -0.01  -0.00    -0.00   0.01   0.01
  26   1    -0.06  -0.03  -0.16    -0.00  -0.00  -0.02     0.00  -0.02  -0.03
  27   1    -0.03  -0.03   0.01    -0.02  -0.02   0.00    -0.13  -0.21  -0.00
  28   1    -0.03  -0.05   0.17     0.01  -0.01  -0.00     0.03   0.08   0.13
  29   1     0.06  -0.35  -0.08     0.01  -0.04  -0.01     0.07  -0.37  -0.06
                     46                     47                     48
                        a                      a                      a 
 Frequencies --  1113.2224              1117.8320              1137.8343
 Red. masses --     5.9301                 6.1226                 2.4151
 Frc consts  --     0.0000                 0.0000                 0.0000
 IR Inten    --   257.7289               188.0107               106.2607
 Raman Activ --     0.0000                 0.0000                 0.0000
 Depolar     --     0.0000                 0.0000                 0.0000
 Atom AN      X      Y      Z        X      Y      Z        X      Y      Z
   1   8     0.03   0.03  -0.05     0.02   0.07  -0.04    -0.00   0.01  -0.00
   2   8    -0.00  -0.00  -0.00    -0.00   0.00   0.00    -0.00  -0.00   0.00
   3   8     0.14  -0.09   0.04     0.16  -0.12   0.06    -0.00  -0.00  -0.01
   4   6     0.01   0.00   0.00     0.01  -0.03  -0.00     0.00  -0.01  -0.00
   5   6    -0.40   0.20   0.03    -0.40   0.14  -0.01    -0.02   0.00   0.01
   6   6    -0.00   0.01  -0.00    -0.01   0.03   0.01    -0.00   0.01   0.00
   7   6     0.21  -0.11  -0.03     0.22  -0.10  -0.01     0.01   0.01  -0.00
   8   1     0.00  -0.00  -0.00     0.01  -0.00  -0.01     0.00   0.00  -0.00
   9   1     0.01   0.00   0.00     0.01  -0.01   0.00     0.00  -0.00   0.00
  10   1     0.00   0.00   0.00     0.02   0.03   0.00     0.00   0.00   0.00
  11   1    -0.19  -0.07   0.02    -0.17  -0.05   0.01    -0.00  -0.00   0.00
  12   1     0.16   0.24  -0.06     0.17   0.24  -0.07    -0.00  -0.00  -0.00
  13   1     0.11  -0.44  -0.29    -0.11   0.44   0.29    -0.07   0.31   0.20
  14   1    -0.01   0.02  -0.01    -0.07   0.06  -0.04     0.01  -0.01  -0.00
  15   8    -0.09   0.18   0.02     0.09  -0.16  -0.00     0.07  -0.16  -0.04
  16   7     0.07  -0.02   0.09     0.05   0.03   0.07     0.03  -0.03   0.01
  17   6    -0.03   0.00  -0.07     0.07  -0.09   0.06    -0.08   0.10  -0.07
  18   6     0.03  -0.06   0.01    -0.06   0.11  -0.02     0.06  -0.14  -0.02
  19   6     0.02   0.01   0.07    -0.04  -0.00  -0.08     0.02   0.05   0.09
  20   6    -0.09   0.07  -0.12     0.10  -0.11   0.08    -0.01   0.06   0.05
  21   6     0.07  -0.06   0.08    -0.07   0.05  -0.10     0.03   0.03   0.10
  22   6     0.06  -0.07   0.05    -0.08   0.10  -0.07     0.03  -0.08  -0.04
  23   1    -0.04  -0.06  -0.15     0.02   0.07   0.14    -0.07  -0.11  -0.28
  24   1    -0.07   0.22   0.13     0.04  -0.13  -0.09    -0.10   0.29   0.16
  25   1     0.01   0.00   0.04     0.00  -0.04  -0.06    -0.11   0.38   0.21
  26   1     0.00  -0.03  -0.04     0.00   0.05   0.08    -0.15  -0.15  -0.53
  27   1    -0.10   0.04   0.03    -0.12   0.02   0.03    -0.00  -0.00  -0.00
  28   1    -0.08  -0.10  -0.06    -0.06  -0.06  -0.08    -0.02  -0.03   0.03
  29   1     0.03  -0.16  -0.04     0.04  -0.20  -0.05     0.01  -0.03  -0.01
                     49                     50                     51
                        a                      a                      a 
 Frequencies --  1186.1433              1204.8860              1218.5184
 Red. masses --     2.1837                 6.1224                 6.9466
 Frc consts  --     0.0000                 0.0000                 0.0000
 IR Inten    --    37.6327               162.5219               325.6994
 Raman Activ --     0.0000                 0.0000                 0.0000
 Depolar     --     0.0000                 0.0000                 0.0000
 Atom AN      X      Y      Z        X      Y      Z        X      Y      Z
   1   8     0.00  -0.00   0.01     0.05  -0.06   0.12    -0.01  -0.00  -0.06
   2   8     0.00   0.00   0.00    -0.00  -0.00   0.00     0.00  -0.00   0.00
   3   8     0.00  -0.00   0.00     0.07   0.15  -0.05    -0.04  -0.04  -0.00
   4   6     0.00  -0.01  -0.00    -0.00   0.01  -0.01    -0.00   0.01  -0.01
   5   6    -0.01  -0.01  -0.01    -0.38  -0.25  -0.30     0.15   0.12   0.11
   6   6    -0.00   0.01   0.00     0.00  -0.00   0.00     0.00  -0.01  -0.00
   7   6     0.01   0.01   0.01     0.07   0.09   0.09    -0.03  -0.03  -0.04
   8   1     0.00  -0.00  -0.00     0.01   0.00  -0.01    -0.00   0.00   0.00
   9   1     0.00  -0.00  -0.00     0.01   0.00   0.01    -0.00   0.00  -0.00
  10   1     0.01   0.01  -0.00    -0.01  -0.01  -0.01     0.00  -0.00   0.00
  11   1     0.01   0.01  -0.00     0.10   0.12  -0.10    -0.04  -0.04   0.03
  12   1    -0.00  -0.01  -0.00     0.04   0.05  -0.09    -0.02  -0.03   0.03
  13   1     0.00  -0.04  -0.03    -0.01   0.05   0.04    -0.01   0.07   0.07
  14   1    -0.00   0.00  -0.00     0.39  -0.29   0.19    -0.11   0.08  -0.05
  15   8    -0.01  -0.06  -0.10     0.01   0.05   0.07     0.01   0.15   0.20
  16   7    -0.00  -0.00  -0.03     0.06   0.03   0.12    -0.05   0.11   0.12
  17   6    -0.00   0.01   0.00    -0.02  -0.04  -0.08    -0.05  -0.11  -0.27
  18   6     0.07  -0.03   0.11    -0.02   0.03   0.00    -0.04   0.06  -0.02
  19   6    -0.09   0.13  -0.04     0.03  -0.03   0.04     0.08  -0.07   0.10
  20   6     0.02   0.08   0.15     0.00  -0.11  -0.13    -0.00  -0.29  -0.36
  21   6     0.04  -0.08  -0.01     0.01  -0.04  -0.02     0.06  -0.12  -0.02
  22   6    -0.04   0.04  -0.04    -0.01  -0.00  -0.03    -0.03  -0.01  -0.08
  23   1     0.15   0.10   0.46     0.03   0.04   0.12     0.12   0.12   0.42
  24   1    -0.11   0.26   0.10    -0.03   0.08   0.06    -0.07   0.26   0.16
  25   1     0.16  -0.48  -0.23    -0.02   0.07   0.03    -0.07   0.21   0.11
  26   1    -0.15  -0.10  -0.46     0.01   0.01   0.04     0.03   0.02   0.09
  27   1    -0.01  -0.01  -0.00    -0.03  -0.05   0.00     0.02   0.03  -0.00
  28   1    -0.00   0.01   0.03    -0.02  -0.00   0.11     0.05   0.11   0.22
  29   1    -0.00   0.02   0.00    -0.08   0.42   0.10     0.02  -0.14  -0.04
                     52                     53                     54
                        a                      a                      a 
 Frequencies --  1267.5040              1275.6952              1304.3309
 Red. masses --     6.2136                 5.6458                 8.2274
 Frc consts  --     0.0000                 0.0000                 0.0000
 IR Inten    --   251.9798               212.8280                85.8583
 Raman Activ --     0.0000                 0.0000                 0.0000
 Depolar     --     0.0000                 0.0000                 0.0000
 Atom AN      X      Y      Z        X      Y      Z        X      Y      Z
   1   8    -0.01   0.13  -0.06     0.02  -0.14   0.05     0.00  -0.01  -0.02
   2   8    -0.00  -0.00   0.00     0.00   0.00   0.00     0.00   0.00   0.01
   3   8     0.00   0.11  -0.08     0.03  -0.10   0.06    -0.01   0.00  -0.01
   4   6     0.00   0.01  -0.00    -0.01   0.00  -0.02    -0.01  -0.01  -0.02
   5   6    -0.16  -0.26   0.39     0.01   0.35  -0.29    -0.02   0.06  -0.01
   6   6     0.00  -0.00   0.00    -0.01  -0.01   0.00    -0.01  -0.02  -0.00
   7   6     0.01   0.04  -0.10     0.02  -0.08   0.07     0.01   0.00  -0.01
   8   1     0.00  -0.00   0.00     0.01   0.01  -0.01     0.01   0.04  -0.01
   9   1    -0.00  -0.01  -0.00     0.01   0.01   0.01     0.02   0.02   0.02
  10   1    -0.01  -0.01  -0.00     0.01   0.01  -0.00     0.02   0.02   0.01
  11   1     0.03  -0.02   0.03    -0.07   0.00  -0.02    -0.02  -0.01   0.00
  12   1     0.01   0.04   0.04     0.02   0.01  -0.02    -0.00  -0.01   0.00
  13   1     0.02  -0.09  -0.07     0.02  -0.10  -0.08    -0.03   0.09   0.05
  14   1     0.24  -0.18   0.12    -0.18   0.14  -0.08     0.00  -0.00   0.00
  15   8    -0.02  -0.01  -0.06    -0.03   0.00  -0.06     0.03  -0.18  -0.14
  16   7     0.01   0.07  -0.12     0.04  -0.11   0.07    -0.02   0.14   0.13
  17   6    -0.13   0.08  -0.21    -0.12   0.13  -0.15    -0.03  -0.20  -0.34
  18   6     0.02  -0.09  -0.06     0.01  -0.06  -0.05     0.10  -0.15   0.04
  19   6    -0.01  -0.00  -0.03    -0.03   0.03  -0.02     0.05  -0.25  -0.18
  20   6     0.04   0.05   0.15     0.05   0.02   0.14    -0.12   0.37   0.17
  21   6     0.06  -0.06   0.05     0.04  -0.09  -0.01     0.06   0.04   0.18
  22   6     0.03   0.06   0.13     0.05   0.04   0.16    -0.06   0.14   0.04
  23   1     0.08   0.04   0.24     0.07   0.04   0.20    -0.01  -0.09  -0.14
  24   1     0.11  -0.32  -0.17     0.13  -0.36  -0.19    -0.06   0.15   0.05
  25   1    -0.05   0.18   0.11    -0.06   0.21   0.11     0.07  -0.15  -0.02
  26   1    -0.05  -0.02  -0.13    -0.06  -0.04  -0.19     0.05   0.10   0.25
  27   1     0.11   0.10  -0.01    -0.11  -0.05   0.02    -0.01  -0.00   0.00
  28   1    -0.00   0.04   0.10    -0.01   0.02   0.28     0.03   0.15   0.41
  29   1     0.06  -0.32  -0.07    -0.05   0.28   0.06    -0.00  -0.01  -0.00
                     55                     56                     57
                        a                      a                      a 
 Frequencies --  1322.3457              1334.9577              1375.5174
 Red. masses --     2.9807                11.3790                 7.6095
 Frc consts  --     0.0000                 0.0000                 0.0000
 IR Inten    --    63.5313               108.1263               168.8887
 Raman Activ --     0.0000                 0.0000                 0.0000
 Depolar     --     0.0000                 0.0000                 0.0000
 Atom AN      X      Y      Z        X      Y      Z        X      Y      Z
   1   8     0.00  -0.01  -0.00     0.00   0.00   0.01    -0.00  -0.00  -0.01
   2   8     0.01  -0.00  -0.00    -0.00  -0.00   0.00    -0.00   0.01  -0.01
   3   8     0.00  -0.00   0.00     0.01  -0.00   0.00    -0.02   0.00   0.02
   4   6    -0.01  -0.01   0.01    -0.00   0.01  -0.00     0.01  -0.02   0.03
   5   6     0.00   0.02  -0.01    -0.04   0.01   0.05     0.13  -0.06  -0.10
   6   6     0.21   0.35   0.07     0.00  -0.00   0.00    -0.01   0.01  -0.02
   7   6     0.00  -0.00   0.00     0.01  -0.00  -0.00    -0.05  -0.00   0.02
   8   1    -0.14  -0.55   0.17     0.00  -0.00  -0.00    -0.01   0.03   0.00
   9   1    -0.31  -0.34  -0.29    -0.00   0.00  -0.00     0.02  -0.01   0.01
  10   1    -0.29  -0.27  -0.13    -0.00  -0.00  -0.00     0.02   0.01   0.04
  11   1    -0.01  -0.00  -0.00    -0.01  -0.01   0.01     0.05   0.02  -0.02
  12   1    -0.00  -0.00  -0.00     0.00  -0.00   0.01     0.00   0.01  -0.03
  13   1    -0.00   0.01   0.00    -0.04   0.17   0.12     0.00  -0.03  -0.03
  14   1    -0.01   0.01  -0.00     0.00  -0.00  -0.00    -0.02   0.02  -0.01
  15   8     0.00  -0.01  -0.01     0.03  -0.02   0.05    -0.02  -0.02  -0.06
  16   7    -0.00   0.01   0.03     0.03  -0.14  -0.19    -0.03   0.18   0.39
  17   6    -0.01  -0.02  -0.04    -0.22   0.41  -0.02    -0.03  -0.15  -0.18
  18   6     0.01  -0.01   0.00     0.11   0.13   0.41    -0.02   0.09   0.05
  19   6     0.00  -0.02  -0.02     0.12  -0.25  -0.05    -0.01  -0.18  -0.23
  20   6    -0.01   0.03   0.02    -0.23   0.16  -0.32    -0.00   0.09   0.10
  21   6     0.01  -0.00   0.01     0.05  -0.27  -0.20     0.07  -0.21  -0.09
  22   6    -0.00   0.02   0.01     0.12  -0.02   0.25    -0.00   0.21   0.25
  23   1     0.00  -0.00   0.00    -0.01   0.00  -0.03     0.01   0.04   0.07
  24   1    -0.00   0.00  -0.00     0.02  -0.03   0.01    -0.04   0.05  -0.02
  25   1     0.00  -0.00   0.00     0.03  -0.10  -0.08    -0.05   0.15   0.08
  26   1     0.00   0.01   0.01     0.02  -0.02   0.03    -0.05   0.03  -0.06
  27   1    -0.00  -0.00   0.00    -0.01   0.00   0.00     0.05  -0.00  -0.01
  28   1     0.01   0.01   0.01    -0.04  -0.05   0.01    -0.02  -0.13  -0.60
  29   1    -0.01   0.02   0.00     0.00  -0.00   0.00    -0.00   0.01  -0.00
                     58                     59                     60
                        a                      a                      a 
 Frequencies --  1382.2871              1388.0135              1401.2971
 Red. masses --     3.4042                 1.6073                 1.8165
 Frc consts  --     0.0000                 0.0000                 0.0000
 IR Inten    --    26.0140                31.0762                32.0437
 Raman Activ --     0.0000                 0.0000                 0.0000
 Depolar     --     0.0000                 0.0000                 0.0000
 Atom AN      X      Y      Z        X      Y      Z        X      Y      Z
   1   8     0.00   0.01   0.00    -0.00   0.00  -0.00    -0.00   0.00   0.00
   2   8     0.00   0.00  -0.00    -0.02  -0.01   0.01    -0.05  -0.03   0.01
   3   8    -0.00   0.02  -0.01    -0.00  -0.00   0.00    -0.00  -0.00   0.00
   4   6    -0.00   0.00   0.00     0.01   0.01   0.02     0.02   0.03  -0.02
   5   6    -0.04  -0.08   0.01     0.01  -0.01  -0.00     0.01   0.00   0.00
   6   6     0.00  -0.01  -0.01    -0.05  -0.03   0.22    -0.13   0.22  -0.03
   7   6     0.31   0.31  -0.12     0.00   0.01  -0.00     0.01   0.01  -0.00
   8   1    -0.02   0.01   0.02     0.39  -0.28  -0.36     0.29   0.00  -0.31
   9   1    -0.01   0.00  -0.01     0.02   0.34   0.15     0.56  -0.37   0.16
  10   1     0.01   0.01   0.01    -0.19   0.04  -0.64    -0.26  -0.36   0.26
  11   1    -0.39  -0.19   0.23    -0.01  -0.01   0.01    -0.01  -0.01   0.01
  12   1    -0.20  -0.47   0.18    -0.01  -0.01   0.01    -0.01  -0.01   0.00
  13   1     0.00  -0.01  -0.01     0.00  -0.00  -0.00    -0.00   0.00   0.00
  14   1     0.04  -0.03   0.02    -0.00   0.00  -0.00    -0.00   0.00  -0.00
  15   8    -0.00   0.01  -0.00    -0.00  -0.00  -0.00     0.00   0.00   0.00
  16   7    -0.00   0.02   0.02    -0.00   0.01   0.02    -0.00  -0.01  -0.00
  17   6     0.01  -0.02   0.00     0.00  -0.01  -0.00    -0.00   0.00   0.00
  18   6    -0.01   0.02  -0.00    -0.00   0.01   0.00     0.00  -0.00   0.00
  19   6    -0.01  -0.01  -0.02    -0.00  -0.01  -0.01    -0.00   0.01   0.01
  20   6     0.01  -0.01   0.02     0.00   0.00   0.01    -0.00  -0.00  -0.00
  21   6     0.00  -0.02  -0.02     0.00  -0.01  -0.01    -0.00   0.01   0.00
  22   6    -0.00   0.02   0.02    -0.00   0.01   0.01     0.00  -0.01  -0.01
  23   1    -0.00   0.01   0.01    -0.00   0.00   0.00     0.00   0.00  -0.00
  24   1     0.01   0.00  -0.01    -0.00   0.01   0.00     0.00  -0.00  -0.00
  25   1    -0.01   0.03   0.01    -0.00   0.01   0.00     0.00  -0.01  -0.00
  26   1    -0.01   0.00  -0.01    -0.00   0.00  -0.00     0.00  -0.00   0.00
  27   1    -0.39  -0.29  -0.05    -0.01  -0.01  -0.00    -0.01  -0.01  -0.00
  28   1     0.00  -0.00  -0.05     0.00   0.00  -0.03     0.01   0.02   0.00
  29   1     0.00   0.01   0.00     0.01  -0.01  -0.00     0.00  -0.01  -0.00
                     61                     62                     63
                        a                      a                      a 
 Frequencies --  1439.3207              1460.6584              1472.3640
 Red. masses --     9.0053                 1.6132                 1.6795
 Frc consts  --     0.0000                 0.0000                 0.0000
 IR Inten    --    35.3468                 0.6348                 5.5144
 Raman Activ --     0.0000                 0.0000                 0.0000
 Depolar     --     0.0000                 0.0000                 0.0000
 Atom AN      X      Y      Z        X      Y      Z        X      Y      Z
   1   8     0.00  -0.01   0.00     0.00   0.00   0.00     0.00  -0.01   0.00
   2   8     0.00   0.00  -0.00     0.00   0.00  -0.00     0.00  -0.00  -0.00
   3   8    -0.00  -0.00   0.01    -0.00   0.00   0.00     0.00  -0.00   0.00
   4   6     0.01  -0.01   0.02    -0.00   0.00   0.00     0.00  -0.00  -0.00
   5   6     0.04   0.01  -0.06     0.02  -0.03  -0.04    -0.03   0.03  -0.04
   6   6    -0.00   0.00  -0.00     0.00   0.00  -0.00     0.00   0.00  -0.00
   7   6     0.00   0.00  -0.00     0.05  -0.13  -0.18    -0.14   0.11  -0.13
   8   1    -0.00   0.00  -0.00     0.00  -0.00  -0.00    -0.00  -0.00   0.00
   9   1    -0.00   0.01   0.00     0.00  -0.00   0.00    -0.00   0.00  -0.00
  10   1     0.01   0.01  -0.00    -0.00  -0.00   0.00    -0.00  -0.00   0.00
  11   1    -0.00  -0.00   0.00     0.33   0.09  -0.11     0.39  -0.31   0.50
  12   1    -0.01  -0.02   0.02    -0.03   0.12   0.67     0.11   0.35   0.16
  13   1    -0.03   0.11   0.08     0.00  -0.00  -0.00    -0.00   0.01   0.00
  14   1    -0.01   0.01  -0.00     0.00   0.00   0.00    -0.01   0.00  -0.00
  15   8     0.05  -0.08   0.01    -0.00   0.00   0.00     0.00   0.01   0.01
  16   7     0.04  -0.00   0.19    -0.00   0.01   0.02     0.00   0.01   0.02
  17   6    -0.22   0.21  -0.21     0.01  -0.02  -0.01     0.00  -0.03  -0.04
  18   6     0.05  -0.26  -0.21     0.00   0.01   0.02     0.01  -0.00   0.03
  19   6     0.06   0.12   0.28    -0.00   0.00  -0.01    -0.01   0.03   0.01
  20   6    -0.19   0.22  -0.15     0.01  -0.01  -0.00    -0.01  -0.02  -0.04
  21   6     0.06   0.14   0.29    -0.00   0.00  -0.01    -0.01   0.03   0.00
  22   6     0.04  -0.24  -0.20     0.00   0.01   0.01     0.02  -0.01   0.03
  23   1     0.09  -0.01   0.19    -0.00  -0.00  -0.01    -0.01  -0.01  -0.02
  24   1     0.08  -0.15  -0.01    -0.01   0.01   0.01     0.00  -0.03  -0.01
  25   1     0.08  -0.15  -0.00    -0.00  -0.00  -0.00     0.01  -0.02  -0.01
  26   1     0.08  -0.02   0.15    -0.00   0.00  -0.01    -0.00  -0.01  -0.02
  27   1    -0.03  -0.00   0.00    -0.49   0.30   0.13     0.05  -0.50  -0.16
  28   1    -0.03  -0.12  -0.34     0.01   0.00  -0.01     0.00   0.00   0.02
  29   1    -0.00   0.02   0.00    -0.01   0.00   0.00    -0.00   0.02   0.00
                     64                     65                     66
                        a                      a                      a 
 Frequencies --  1486.6607              1576.3922              1616.3848
 Red. masses --     9.5208                11.5023                11.5782
 Frc consts  --     0.0000                 0.0000                 0.0000
 IR Inten    --   503.4873                14.4726                 1.9519
 Raman Activ --     0.0000                 0.0000                 0.0000
 Depolar     --     0.0000                 0.0000                 0.0000
 Atom AN      X      Y      Z        X      Y      Z        X      Y      Z
   1   8     0.00  -0.00  -0.01     0.00   0.00  -0.00     0.00  -0.00  -0.00
   2   8    -0.00   0.00  -0.00     0.00   0.00   0.00     0.01   0.01  -0.00
   3   8    -0.01   0.01  -0.01     0.00   0.00  -0.00    -0.00   0.00  -0.00
   4   6     0.00  -0.01   0.00    -0.00  -0.00  -0.00    -0.01  -0.01   0.00
   5   6     0.02  -0.00   0.02    -0.01  -0.01   0.00     0.01  -0.00   0.01
   6   6     0.00  -0.00  -0.00     0.00   0.00   0.00     0.00   0.00  -0.00
   7   6     0.01  -0.00   0.01     0.00  -0.00   0.00    -0.00   0.00  -0.00
   8   1    -0.00   0.00   0.00     0.00  -0.00   0.00    -0.00   0.00   0.00
   9   1    -0.00   0.01   0.00    -0.00  -0.00  -0.00    -0.00   0.00   0.00
  10   1     0.00   0.00  -0.00    -0.00  -0.00   0.00     0.00   0.00  -0.00
  11   1    -0.06   0.03  -0.05     0.00   0.01  -0.01    -0.00   0.00  -0.00
  12   1    -0.02  -0.05  -0.03     0.00  -0.00  -0.00    -0.00  -0.00  -0.00
  13   1    -0.01   0.04   0.03    -0.02   0.09   0.06     0.00  -0.02  -0.01
  14   1     0.01  -0.01   0.01     0.00  -0.00   0.00     0.00  -0.00   0.00
  15   8     0.01   0.05   0.07     0.03  -0.05   0.00    -0.00  -0.03  -0.04
  16   7    -0.03   0.10   0.12    -0.02   0.03  -0.04    -0.01   0.04   0.03
  17   6    -0.00  -0.29  -0.35     0.28  -0.32   0.24    -0.01  -0.17  -0.22
  18   6     0.14  -0.02   0.28    -0.15   0.08  -0.25     0.07   0.19   0.39
  19   6    -0.13   0.26   0.03    -0.16   0.27  -0.02    -0.06   0.33   0.27
  20   6    -0.00  -0.24  -0.30    -0.32   0.36  -0.28     0.01   0.17   0.23
  21   6    -0.14   0.28   0.03     0.18  -0.28   0.05     0.07  -0.35  -0.27
  22   6     0.13  -0.02   0.28     0.17  -0.11   0.24    -0.08  -0.19  -0.41
  23   1    -0.05  -0.09  -0.22    -0.00   0.05   0.06    -0.04  -0.00  -0.08
  24   1     0.06  -0.20  -0.13     0.00  -0.05  -0.07     0.04  -0.09  -0.01
  25   1     0.05  -0.19  -0.13     0.01   0.04   0.07    -0.04   0.09   0.02
  26   1    -0.04  -0.08  -0.19     0.01  -0.05  -0.04     0.04   0.00   0.10
  27   1     0.01   0.05   0.01    -0.00   0.00   0.00     0.00   0.00   0.00
  28   1     0.02   0.02   0.00     0.02   0.04   0.09     0.01  -0.01   0.00
  29   1     0.00  -0.01  -0.00     0.00  -0.00  -0.00    -0.00  -0.00  -0.00
                     67                     68                     69
                        a                      a                      a 
 Frequencies --  1815.1636              2445.4946              2957.3146
 Red. masses --    13.4568                 2.0407                 1.6606
 Frc consts  --     0.0000                 0.0000                 0.0000
 IR Inten    --   604.1593               273.3726                20.6214
 Raman Activ --     0.0000                 0.0000                 0.0000
 Depolar     --     0.0000                 0.0000                 0.0000
 Atom AN      X      Y      Z        X      Y      Z        X      Y      Z
   1   8    -0.00  -0.00   0.00     0.00   0.00   0.00     0.00  -0.00  -0.00
   2   8    -0.55  -0.25   0.14     0.01   0.01  -0.01     0.00  -0.00  -0.00
   3   8     0.00  -0.00   0.00     0.01  -0.00   0.00     0.00   0.00  -0.00
   4   6     0.68   0.35  -0.16     0.02  -0.03   0.01    -0.00   0.01   0.00
   5   6     0.00   0.00  -0.01    -0.01   0.01  -0.01    -0.00  -0.00   0.00
   6   6    -0.03  -0.05   0.01     0.00  -0.00  -0.00    -0.18   0.15   0.06
   7   6    -0.00  -0.00   0.00     0.00  -0.00   0.00    -0.00  -0.00  -0.00
   8   1    -0.02  -0.03   0.03     0.00  -0.00  -0.01    -0.06   0.02  -0.03
   9   1    -0.04  -0.02  -0.03     0.00   0.00   0.00    -0.04   0.01   0.04
  10   1     0.02   0.03  -0.01    -0.01   0.00   0.00     0.71  -0.61  -0.23
  11   1     0.00   0.00  -0.00    -0.00   0.00   0.00    -0.00   0.00   0.00
  12   1    -0.00  -0.00   0.00    -0.00   0.00  -0.00     0.00  -0.00   0.00
  13   1    -0.00   0.00   0.00     0.00   0.00   0.00     0.00  -0.00   0.00
  14   1    -0.00   0.00  -0.00    -0.00   0.00   0.00    -0.00  -0.00   0.00
  15   8     0.00  -0.00  -0.00    -0.00  -0.00  -0.00    -0.00   0.00   0.00
  16   7    -0.01   0.00   0.01    -0.18   0.20  -0.05    -0.00   0.00  -0.00
  17   6     0.00  -0.01  -0.00    -0.01   0.02   0.02    -0.00   0.00   0.00
  18   6    -0.00   0.00   0.01    -0.00  -0.00  -0.01    -0.00   0.00  -0.00
  19   6    -0.00   0.01   0.00     0.00  -0.02  -0.00     0.00  -0.00  -0.00
  20   6    -0.00   0.01   0.01     0.00  -0.00   0.00     0.00  -0.00  -0.00
  21   6     0.00  -0.01  -0.00     0.00   0.00   0.00     0.00   0.00   0.00
  22   6    -0.00  -0.00  -0.00     0.00   0.00   0.00    -0.00   0.00   0.00
  23   1     0.00   0.00  -0.00    -0.00   0.00   0.00     0.00  -0.00   0.00
  24   1    -0.00  -0.00  -0.00    -0.00   0.00  -0.00     0.00   0.00  -0.00
  25   1     0.00   0.00   0.00    -0.00  -0.00   0.00    -0.00   0.00  -0.00
  26   1    -0.00   0.00   0.00     0.00   0.00   0.00     0.00  -0.00   0.00
  27   1    -0.00  -0.00   0.00    -0.00  -0.00  -0.00     0.00  -0.00   0.00
  28   1     0.01  -0.00  -0.00     0.61  -0.72   0.17     0.01  -0.01   0.00
  29   1     0.00   0.00   0.00     0.00  -0.00  -0.00    -0.00  -0.00   0.00
                     70                     71                     72
                        a                      a                      a 
 Frequencies --  3016.2612              3036.0853              3041.7119
 Red. masses --     1.8418                 1.6495                 1.6089
 Frc consts  --     0.0000                 0.0000                 0.0000
 IR Inten    --     7.3318                 2.2473                21.9741
 Raman Activ --     0.0000                 0.0000                 0.0000
 Depolar     --     0.0000                 0.0000                 0.0000
 Atom AN      X      Y      Z        X      Y      Z        X      Y      Z
   1   8     0.00   0.00   0.00    -0.00  -0.00  -0.00    -0.00   0.00   0.00
   2   8    -0.00  -0.00   0.00     0.00   0.00  -0.00     0.00   0.00  -0.00
   3   8     0.00   0.00   0.00     0.00   0.00  -0.00    -0.00   0.00  -0.00
   4   6     0.01   0.00   0.01    -0.01  -0.01   0.01    -0.00  -0.00   0.00
   5   6    -0.00  -0.00  -0.00    -0.00   0.00   0.00     0.01  -0.00  -0.00
   6   6     0.15  -0.03   0.23    -0.16  -0.06   0.17    -0.00   0.00  -0.00
   7   6     0.00  -0.00   0.00    -0.00   0.00  -0.00     0.22  -0.08  -0.02
   8   1    -0.66   0.01  -0.66     0.15  -0.01   0.20     0.00   0.00   0.00
   9   1     0.13   0.06  -0.18     0.40   0.25  -0.81     0.00   0.00  -0.00
  10   1    -0.02   0.03   0.04     0.01  -0.03   0.01     0.00  -0.00  -0.00
  11   1     0.00  -0.00  -0.00    -0.00   0.00   0.00     0.03  -0.02  -0.01
  12   1    -0.00   0.00  -0.00     0.01  -0.00   0.00    -0.86   0.37  -0.13
  13   1    -0.00   0.00  -0.00     0.00  -0.00   0.00     0.00  -0.00   0.00
  14   1     0.00  -0.00  -0.00     0.00  -0.00   0.00     0.00   0.00  -0.00
  15   8     0.00  -0.00  -0.00    -0.00   0.00   0.00    -0.00   0.00  -0.00
  16   7     0.00  -0.00   0.00     0.00   0.00  -0.00    -0.00  -0.00  -0.00
  17   6     0.00  -0.00   0.00    -0.00   0.00  -0.00     0.00   0.00  -0.00
  18   6     0.00  -0.00   0.00     0.00  -0.00   0.00    -0.00   0.00  -0.00
  19   6     0.00   0.00  -0.00     0.00  -0.00   0.00    -0.00   0.00  -0.00
  20   6    -0.00   0.00   0.00    -0.00  -0.00  -0.00     0.00   0.00   0.00
  21   6    -0.00   0.00  -0.00     0.00  -0.00   0.00     0.00  -0.00   0.00
  22   6     0.00  -0.00  -0.00    -0.00   0.00   0.00    -0.00   0.00  -0.00
  23   1    -0.00   0.00  -0.00    -0.00   0.00  -0.00     0.00  -0.00   0.00
  24   1    -0.00   0.00  -0.00    -0.00   0.00  -0.00     0.00  -0.00   0.00
  25   1     0.00  -0.00   0.00    -0.00   0.00  -0.00    -0.00   0.00  -0.00
  26   1    -0.00   0.00  -0.00     0.00  -0.00   0.00     0.00  -0.00   0.00
  27   1    -0.00   0.00  -0.00     0.00  -0.00   0.01     0.06  -0.07   0.21
  28   1    -0.00   0.00   0.00     0.00  -0.00   0.00     0.00   0.00  -0.00
  29   1    -0.00  -0.00  -0.00    -0.00   0.00   0.00     0.00   0.00  -0.00
                     73                     74                     75
                        a                      a                      a 
 Frequencies --  3050.7868              3062.3116              3065.9238
 Red. masses --     1.8576                 1.6922                 1.7804
 Frc consts  --     0.0000                 0.0000                 0.0000
 IR Inten    --    35.0460                17.6353                61.4682
 Raman Activ --     0.0000                 0.0000                 0.0000
 Depolar     --     0.0000                 0.0000                 0.0000
 Atom AN      X      Y      Z        X      Y      Z        X      Y      Z
   1   8     0.00   0.00  -0.00    -0.00  -0.00   0.00     0.00  -0.00   0.00
   2   8     0.00  -0.00  -0.00    -0.00  -0.00   0.00    -0.00   0.00   0.00
   3   8     0.00   0.00  -0.00     0.00   0.00  -0.00     0.00  -0.00   0.00
   4   6    -0.00   0.00   0.00     0.00   0.00  -0.00     0.00  -0.00   0.00
   5   6     0.00  -0.00   0.01     0.00  -0.01  -0.00    -0.00  -0.00  -0.00
   6   6    -0.00  -0.00   0.00     0.00  -0.00  -0.00     0.00  -0.00   0.00
   7   6     0.08  -0.07   0.26     0.04  -0.21  -0.12    -0.00  -0.00  -0.01
   8   1     0.00  -0.00   0.00     0.00   0.00  -0.00    -0.00  -0.00  -0.00
   9   1     0.00   0.00  -0.01    -0.00  -0.00   0.00     0.00   0.00  -0.00
  10   1     0.00  -0.00  -0.00    -0.00   0.00   0.00    -0.00   0.00   0.00
  11   1     0.02  -0.08  -0.02    -0.11   0.77   0.56    -0.00   0.02   0.01
  12   1    -0.19   0.08   0.01    -0.02  -0.02  -0.02     0.01  -0.00  -0.00
  13   1    -0.00  -0.00  -0.00     0.00  -0.00   0.00     0.00  -0.00  -0.00
  14   1    -0.00  -0.00   0.00    -0.00  -0.00   0.00    -0.00   0.00  -0.00
  15   8    -0.00   0.00   0.00    -0.00   0.00   0.00    -0.00   0.00  -0.00
  16   7    -0.00  -0.00   0.00     0.00  -0.00  -0.00     0.00   0.00   0.00
  17   6     0.00  -0.00  -0.00    -0.00   0.00   0.00    -0.00   0.01   0.00
  18   6    -0.00   0.00   0.00     0.00  -0.01   0.00    -0.07   0.12  -0.01
  19   6     0.00  -0.00   0.00     0.00  -0.00   0.00    -0.00  -0.00  -0.00
  20   6    -0.00   0.00  -0.00    -0.00  -0.00  -0.00     0.00   0.00   0.01
  21   6     0.00  -0.00   0.00    -0.00   0.00  -0.00     0.11  -0.05   0.19
  22   6    -0.00   0.00  -0.00     0.00  -0.00  -0.00     0.01  -0.01  -0.00
  23   1     0.00  -0.01   0.00    -0.01   0.02  -0.00     0.26  -0.44   0.04
  24   1    -0.00   0.00  -0.01    -0.00   0.00  -0.01     0.01  -0.00   0.01
  25   1    -0.00   0.00  -0.01     0.00  -0.00   0.01    -0.41   0.20  -0.68
  26   1     0.00  -0.00   0.00    -0.00   0.01  -0.00    -0.02   0.04  -0.00
  27   1    -0.12   0.24  -0.90    -0.01  -0.01  -0.10     0.00  -0.00   0.01
  28   1    -0.00   0.00  -0.00    -0.00   0.00  -0.00     0.00  -0.00  -0.00
  29   1    -0.00  -0.00   0.00    -0.00   0.00  -0.00    -0.00   0.00  -0.00
                     76                     77                     78
                        a                      a                      a 
 Frequencies --  3080.7552              3095.8397              3109.6670
 Red. masses --     1.8734                 1.7888                 1.8717
 Frc consts  --     0.0000                 0.0000                 0.0000
 IR Inten    --   119.9620                50.1735                49.6568
 Raman Activ --     0.0000                 0.0000                 0.0000
 Depolar     --     0.0000                 0.0000                 0.0000
 Atom AN      X      Y      Z        X      Y      Z        X      Y      Z
   1   8     0.00  -0.00   0.00    -0.00   0.00  -0.00     0.00  -0.00   0.00
   2   8     0.00   0.00  -0.00     0.00   0.00  -0.00     0.00   0.00  -0.00
   3   8    -0.00   0.00  -0.00    -0.00  -0.00  -0.00     0.00   0.00   0.00
   4   6    -0.00  -0.00   0.00    -0.00   0.00   0.00    -0.00   0.00   0.00
   5   6    -0.00  -0.00   0.00     0.00   0.00   0.00    -0.00  -0.00  -0.00
   6   6    -0.00  -0.00   0.00    -0.00  -0.00   0.00    -0.00  -0.00  -0.00
   7   6    -0.00  -0.00  -0.00     0.00   0.00   0.00    -0.00   0.00   0.00
   8   1     0.00  -0.00   0.00     0.00   0.00   0.00     0.00  -0.00   0.00
   9   1     0.00   0.00  -0.00     0.00   0.00  -0.00     0.00   0.00   0.00
  10   1    -0.00   0.00   0.00     0.00  -0.00  -0.00     0.00  -0.00  -0.00
  11   1    -0.00   0.01   0.01    -0.00  -0.00  -0.00     0.00  -0.01  -0.01
  12   1     0.00  -0.00  -0.00    -0.00   0.00   0.00    -0.00   0.00   0.00
  13   1     0.00   0.00   0.00     0.00  -0.00   0.01     0.00  -0.00   0.00
  14   1    -0.00  -0.00   0.00     0.00   0.00  -0.00    -0.00  -0.00   0.00
  15   8    -0.00   0.00   0.00    -0.00   0.00  -0.00    -0.00   0.00   0.00
  16   7    -0.00  -0.00  -0.00    -0.00  -0.00  -0.00     0.00  -0.00  -0.00
  17   6    -0.00   0.01   0.01    -0.00   0.00  -0.00    -0.00   0.01   0.01
  18   6    -0.12   0.20  -0.02    -0.00   0.01   0.00    -0.01   0.01  -0.00
  19   6    -0.00   0.00  -0.01    -0.06   0.03  -0.10     0.13  -0.06   0.21
  20   6     0.00  -0.01  -0.00     0.00  -0.01  -0.01    -0.00  -0.00  -0.01
  21   6    -0.08   0.04  -0.12    -0.01   0.01  -0.01    -0.01   0.00  -0.01
  22   6    -0.01   0.02   0.00     0.12  -0.21   0.01     0.06  -0.11   0.01
  23   1     0.42  -0.70   0.06     0.01  -0.02   0.00     0.03  -0.04   0.00
  24   1     0.02  -0.01   0.03     0.22  -0.10   0.36    -0.44   0.20  -0.71
  25   1     0.25  -0.12   0.42     0.03  -0.02   0.05     0.02  -0.01   0.03
  26   1     0.04  -0.06   0.00    -0.43   0.74  -0.05    -0.21   0.37  -0.03
  27   1     0.00  -0.00   0.00    -0.00   0.00  -0.01     0.00  -0.00   0.01
  28   1     0.00  -0.00  -0.00     0.00   0.00  -0.00    -0.00   0.00  -0.00
  29   1    -0.00   0.00  -0.00     0.00  -0.00   0.00    -0.00   0.00  -0.00
                     79                     80                     81
                        a                      a                      a 
 Frequencies --  3458.0787              3469.2704              3478.2609
 Red. masses --     1.8603                 1.8654                 1.8660
 Frc consts  --     0.0000                 0.0000                 0.0000
 IR Inten    --   100.5441               134.4263                93.5857
 Raman Activ --     0.0000                 0.0000                 0.0000
 Depolar     --     0.0000                 0.0000                 0.0000
 Atom AN      X      Y      Z        X      Y      Z        X      Y      Z
   1   8    -0.00   0.00  -0.01     0.00  -0.00   0.00    -0.02   0.04  -0.24
   2   8    -0.00  -0.00   0.00    -0.00  -0.00   0.00    -0.00   0.00  -0.00
   3   8     0.17   0.15  -0.07    -0.00  -0.00   0.00    -0.01  -0.01   0.00
   4   6     0.00   0.00  -0.00     0.00  -0.00  -0.00     0.00  -0.00  -0.00
   5   6     0.01   0.00  -0.00    -0.00   0.00  -0.00     0.00  -0.00  -0.01
   6   6     0.00   0.00   0.00     0.00   0.00   0.00     0.00  -0.00   0.00
   7   6     0.00   0.00  -0.00    -0.00   0.00   0.00    -0.00  -0.00  -0.00
   8   1    -0.00  -0.00  -0.00    -0.00   0.00  -0.00    -0.00   0.00  -0.00
   9   1    -0.00  -0.00   0.00    -0.00  -0.00   0.00    -0.00  -0.00   0.00
  10   1    -0.00   0.00   0.00    -0.00   0.00   0.00    -0.00   0.00  -0.00
  11   1     0.00  -0.00  -0.00     0.00  -0.00  -0.00    -0.00   0.00   0.00
  12   1    -0.00   0.00  -0.00     0.00  -0.00  -0.00     0.00  -0.00  -0.00
  13   1     0.00  -0.00   0.00     0.52  -0.32   0.76     0.00  -0.00   0.00
  14   1    -0.69  -0.62   0.29     0.00   0.00  -0.00     0.03   0.03  -0.01
  15   8    -0.00   0.00  -0.00    -0.13   0.08  -0.18    -0.00   0.00  -0.00
  16   7     0.00  -0.00   0.00     0.00   0.00   0.00    -0.00  -0.00   0.00
  17   6     0.00   0.00   0.00     0.00  -0.00  -0.00     0.00   0.00   0.00
  18   6     0.00  -0.00  -0.00     0.00  -0.00  -0.00    -0.00   0.00  -0.00
  19   6    -0.00   0.00  -0.00    -0.00   0.00  -0.00     0.00  -0.00   0.00
  20   6    -0.00   0.00  -0.00    -0.00  -0.00  -0.01     0.00  -0.00  -0.00
  21   6     0.00  -0.00   0.00     0.00   0.00   0.00    -0.00   0.00   0.00
  22   6    -0.00   0.00   0.00    -0.00   0.00   0.00     0.00  -0.00  -0.00
  23   1    -0.00   0.00  -0.00    -0.00   0.00   0.00     0.00  -0.00   0.00
  24   1     0.00   0.00   0.00     0.00  -0.00  -0.00    -0.00   0.00  -0.00
  25   1    -0.00  -0.00  -0.00     0.00  -0.00  -0.00    -0.00  -0.00  -0.00
  26   1     0.00  -0.00   0.00     0.00  -0.01   0.00     0.00  -0.00  -0.00
  27   1     0.00  -0.00   0.01     0.00  -0.00  -0.00    -0.00  -0.00   0.00
  28   1    -0.00   0.00  -0.00    -0.00  -0.00  -0.00     0.00  -0.00   0.00
  29   1     0.00  -0.01   0.05    -0.00   0.00  -0.00     0.06  -0.14   0.96
