 Entering Gaussian System
 *********************************************
 Gaussian 98:
 frequency output generated by the xtb code
 *********************************************
                         Standard orientation:
 --------------------------------------------------------------------
  Center     Atomic     Atomic              Coordinates (Angstroms)
  Number     Number      Type              X           Y           Z
 --------------------------------------------------------------------
    1          8             0        3.866734    0.374170    0.000033
    2          8             0       -2.606875    1.374436    0.002534
    3          7             0       -1.584039   -0.665016    0.000569
    4          6             0       -0.220423   -0.343299    0.000019
    5          6             0        0.247577    0.965924    0.000575
    6          6             0        0.697897   -1.392271   -0.000680
    7          6             0        1.607356    1.213768    0.000558
    8          6             0        2.053930   -1.143656   -0.000677
    9          6             0        2.520621    0.167241   -0.000003
   10          6             0       -2.665171    0.166329    0.002163
   11          6             0       -3.974522   -0.599815    0.000998
   12          1             0       -0.453648    1.782747    0.001132
   13          1             0        0.344809   -2.414236   -0.001072
   14          1             0       -1.773803   -1.657725   -0.000606
   15          1             0        1.961808    2.235945    0.000988
   16          1             0        2.768165   -1.951186   -0.001153
   17          1             0       -4.051613   -1.209955   -0.896772
   18          1             0       -4.798825    0.106704    0.022844
   19          1             0       -4.034747   -1.247240    0.873390
   20          1             0        4.049354    1.321366    0.000586
 --------------------------------------------------------------------
     1 basis functions        1 primitive gaussians
     1 alpha electrons        1 beta electrons

 Harmonic frequencies (cm**-1), IR intensities (km*mol⁻¹),
 Raman scattering activities (A**4/amu), Raman depolarization ratios,
 reduced masses (AMU), force constants (mDyne/A) and normal coordinates:
                      1                      2                      3
                        a                      a                      a 
 Frequencies --    47.5994                66.0112               101.8532
 Red. masses --    12.2587                10.8724                 1.9370
 Frc consts  --     0.0000                 0.0000                 0.0000
 IR Inten    --     9.9741                 3.6906                 0.0354
 Raman Activ --     0.0000                 0.0000                 0.0000
 Depolar     --     0.0000                 0.0000                 0.0000
 Atom AN      X      Y      Z        X      Y      Z        X      Y      Z
   1   8    -0.00   0.00   0.20     0.00  -0.00   0.42    -0.00   0.00   0.02
   2   8     0.00  -0.00   0.59    -0.00   0.00  -0.24     0.00  -0.00  -0.23
   3   7    -0.00  -0.00  -0.30    -0.00   0.00  -0.24     0.00  -0.00   0.07
   4   6    -0.00  -0.00  -0.19    -0.00   0.00  -0.26     0.00  -0.00   0.01
   5   6    -0.00   0.00  -0.42     0.00   0.00  -0.17    -0.00  -0.00   0.01
   6   6     0.00  -0.00   0.12    -0.00   0.00  -0.27     0.00  -0.00   0.00
   7   6    -0.00   0.00  -0.31     0.00  -0.00   0.01    -0.00  -0.00   0.01
   8   6     0.00  -0.00   0.24    -0.00  -0.00  -0.10     0.00   0.00  -0.00
   9   6    -0.00   0.00   0.03     0.00  -0.00   0.09    -0.00   0.00   0.01
  10   6     0.00  -0.00   0.10     0.00   0.00  -0.00     0.00  -0.00   0.01
  11   6    -0.00   0.00  -0.07     0.00  -0.00   0.57    -0.00   0.01   0.09
  12   1    -0.00   0.00  -0.19     0.00   0.00  -0.06    -0.00  -0.00   0.00
  13   1     0.00  -0.00   0.08    -0.00   0.00  -0.11     0.00  -0.00  -0.00
  14   1    -0.00   0.00  -0.13    -0.00   0.00  -0.03     0.00  -0.00   0.03
  15   1    -0.00   0.00  -0.14     0.00  -0.00   0.03    -0.00   0.00   0.01
  16   1     0.00  -0.00   0.14    -0.00  -0.00  -0.02     0.00   0.00  -0.00
  17   1    -0.02   0.09  -0.08    -0.07  -0.09   0.24    -0.23   0.44  -0.26
  18   1     0.00  -0.00   0.07     0.00   0.00   0.16     0.01  -0.01   0.56
  19   1     0.02  -0.09  -0.09     0.07   0.09   0.24     0.22  -0.43  -0.28
  20   1    -0.00   0.00   0.00     0.00  -0.00   0.14    -0.00   0.00   0.01
                      4                      5                      6
                        a                      a                      a 
 Frequencies --   144.5395               167.0675               306.0130
 Red. masses --    12.1761                12.1899                13.3555
 Frc consts  --     0.0000                 0.0000                 0.0000
 IR Inten    --     8.7897                 0.0565                 0.2408
 Raman Activ --     0.0000                 0.0000                 0.0000
 Depolar     --     0.0000                 0.0000                 0.0000
 Atom AN      X      Y      Z        X      Y      Z        X      Y      Z
   1   8     0.14  -0.34  -0.00    -0.00   0.00  -0.45    -0.20  -0.38  -0.00
   2   8    -0.50   0.02  -0.00     0.00   0.00  -0.01     0.51  -0.19  -0.00
   3   7     0.04   0.26  -0.00    -0.00  -0.00  -0.59     0.10  -0.14   0.00
   4   6     0.03   0.26   0.00    -0.00  -0.00  -0.06    -0.04   0.22  -0.00
   5   6     0.16   0.21   0.00    -0.00  -0.00   0.20    -0.11   0.26   0.00
   6   6    -0.08   0.16   0.00     0.00  -0.00   0.21    -0.16   0.16   0.00
   7   6     0.20   0.04   0.00    -0.00  -0.00   0.30    -0.09   0.21   0.00
   8   6    -0.06  -0.02   0.00     0.00  -0.00   0.30    -0.21   0.11   0.00
   9   6     0.09  -0.07   0.00    -0.00   0.00   0.10    -0.22   0.09   0.00
  10   6    -0.14   0.01   0.00     0.00   0.00  -0.15     0.17  -0.15  -0.00
  11   6     0.09  -0.40   0.00    -0.00   0.00   0.18     0.16  -0.09  -0.00
  12   1     0.07   0.08   0.00    -0.00  -0.00   0.06    -0.03   0.08   0.00
  13   1    -0.06   0.06   0.00     0.00  -0.00   0.07    -0.08   0.06   0.00
  14   1     0.05   0.06  -0.00    -0.00   0.00  -0.19     0.08  -0.05   0.00
  15   1     0.10  -0.00   0.00    -0.00  -0.00   0.11    -0.00   0.05   0.00
  16   1    -0.05  -0.03   0.00     0.00  -0.00   0.11    -0.05   0.04   0.00
  17   1     0.08  -0.12  -0.00    -0.07  -0.02   0.07     0.05  -0.03   0.00
  18   1    -0.04  -0.19   0.01     0.00   0.00   0.10     0.04  -0.03   0.00
  19   1     0.09  -0.13  -0.00     0.06   0.02   0.07     0.05  -0.03  -0.00
  20   1     0.08  -0.10  -0.00    -0.00   0.00  -0.15     0.05  -0.12  -0.00
                      7                      8                      9
                        a                      a                      a 
 Frequencies --   310.6826               368.9930               376.2383
 Red. masses --    10.7996                11.0673                 8.6008
 Frc consts  --     0.0000                 0.0000                 0.0000
 IR Inten    --     0.9986                 0.1597                16.7107
 Raman Activ --     0.0000                 0.0000                 0.0000
 Depolar     --     0.0000                 0.0000                 0.0000
 Atom AN      X      Y      Z        X      Y      Z        X      Y      Z
   1   8    -0.29   0.16  -0.00    -0.00   0.00   0.27     0.00  -0.00  -0.12
   2   8     0.03   0.32  -0.00     0.00   0.00   0.02    -0.00   0.00   0.00
   3   7     0.08   0.18   0.00     0.00   0.00  -0.31     0.00   0.00   0.03
   4   6     0.06  -0.11  -0.00     0.00  -0.00   0.36     0.00  -0.00  -0.05
   5   6    -0.10  -0.08  -0.00     0.00  -0.00   0.27    -0.00   0.00  -0.46
   6   6    -0.05  -0.19  -0.00    -0.00  -0.00   0.38     0.00  -0.00   0.38
   7   6    -0.15  -0.07   0.00    -0.00   0.00  -0.26    -0.00  -0.00   0.44
   8   6    -0.06  -0.15   0.00    -0.00  -0.00  -0.34     0.00   0.00  -0.35
   9   6    -0.20  -0.10   0.00    -0.00  -0.00  -0.39    -0.00   0.00   0.04
  10   6     0.18   0.27   0.00     0.00   0.00  -0.14     0.00  -0.00   0.03
  11   6     0.48  -0.21  -0.00     0.00  -0.00   0.05     0.00   0.00  -0.01
  12   1    -0.05  -0.04  -0.00    -0.00  -0.00   0.11    -0.00   0.00  -0.26
  13   1    -0.03  -0.05  -0.00    -0.00  -0.00   0.18     0.00  -0.00   0.23
  14   1    -0.04   0.06  -0.00    -0.00   0.00  -0.14     0.00  -0.00   0.06
  15   1    -0.03  -0.03   0.00     0.00   0.00  -0.09    -0.00  -0.00   0.25
  16   1     0.00  -0.03   0.00    -0.00  -0.00  -0.13     0.00   0.00  -0.21
  17   1     0.23  -0.07  -0.00    -0.05  -0.02   0.03     0.01   0.01  -0.01
  18   1     0.03  -0.19   0.00     0.00   0.00   0.05    -0.00  -0.00  -0.01
  19   1     0.24  -0.07  -0.00     0.05   0.02   0.03    -0.01  -0.01  -0.01
  20   1    -0.13   0.05  -0.00    -0.00  -0.00   0.17     0.00  -0.00   0.28
                     10                     11                     12
                        a                      a                      a 
 Frequencies --   404.0038               425.8947               481.4578
 Red. masses --    11.0415                 3.1018                11.8760
 Frc consts  --     0.0000                 0.0000                 0.0000
 IR Inten    --     9.4906               148.6303                18.6257
 Raman Activ --     0.0000                 0.0000                 0.0000
 Depolar     --     0.0000                 0.0000                 0.0000
 Atom AN      X      Y      Z        X      Y      Z        X      Y      Z
   1   8     0.06  -0.46  -0.00     0.00   0.00  -0.26     0.38   0.05   0.00
   2   8    -0.20   0.14  -0.00     0.00   0.00  -0.00     0.38   0.15  -0.00
   3   7    -0.01   0.00  -0.00    -0.00  -0.00   0.04    -0.36  -0.07   0.00
   4   6     0.07  -0.27   0.00    -0.00   0.00  -0.09    -0.33  -0.07  -0.00
   5   6    -0.09  -0.22   0.00     0.00  -0.00   0.10    -0.04  -0.17  -0.00
   6   6     0.19  -0.18  -0.00    -0.00   0.00  -0.10    -0.12   0.12   0.00
   7   6    -0.15   0.27  -0.00    -0.00   0.00  -0.13    -0.00  -0.12   0.00
   8   6     0.08   0.30   0.00     0.00  -0.00   0.23    -0.09   0.19  -0.00
   9   6    -0.07   0.34  -0.00     0.00   0.00  -0.07     0.25   0.08  -0.00
  10   6     0.02   0.11   0.00    -0.00   0.00   0.01    -0.17   0.16   0.00
  11   6     0.07   0.04   0.00    -0.00   0.00  -0.00     0.02  -0.23  -0.00
  12   1    -0.09  -0.12   0.00     0.00  -0.00   0.09     0.04  -0.01  -0.00
  13   1     0.13  -0.08  -0.00     0.00   0.00  -0.02     0.02   0.01   0.00
  14   1    -0.06   0.01  -0.00    -0.00  -0.00   0.00    -0.12  -0.01  -0.00
  15   1    -0.13   0.11  -0.00    -0.00   0.00  -0.04    -0.07  -0.01   0.00
  16   1     0.11   0.16   0.00     0.00  -0.00   0.14    -0.08   0.01  -0.00
  17   1     0.03   0.01  -0.00     0.00   0.00  -0.00     0.12  -0.08   0.00
  18   1     0.01   0.00   0.00    -0.00  -0.00  -0.00    -0.13  -0.23   0.00
  19   1     0.03   0.01   0.00    -0.00  -0.00  -0.00     0.13  -0.08  -0.00
  20   1     0.21  -0.15  -0.00     0.00  -0.00   0.90     0.10   0.01  -0.00
                     13                     14                     15
                        a                      a                      a 
 Frequencies --   498.8346               544.8696               602.5710
 Red. masses --     8.6208                 8.6544                 3.9209
 Frc consts  --     0.0000                 0.0000                 0.0000
 IR Inten    --     0.1482                64.6611                33.8165
 Raman Activ --     0.0000                 0.0000                 0.0000
 Depolar     --     0.0000                 0.0000                 0.0000
 Atom AN      X      Y      Z        X      Y      Z        X      Y      Z
   1   8    -0.00   0.00  -0.17    -0.00  -0.00   0.02     0.01  -0.01   0.00
   2   8     0.00   0.00   0.05     0.00   0.00   0.21    -0.02   0.00  -0.22
   3   7     0.00   0.00  -0.06     0.00   0.00   0.44     0.00  -0.02   0.12
   4   6     0.00  -0.00   0.54     0.00  -0.00  -0.13    -0.01   0.01  -0.02
   5   6     0.00   0.00  -0.12     0.00   0.00  -0.05    -0.04   0.01  -0.02
   6   6     0.00  -0.00  -0.11     0.00  -0.00  -0.00     0.02   0.03   0.03
   7   6    -0.00   0.00  -0.11     0.00   0.00   0.06    -0.03  -0.03   0.00
   8   6     0.00  -0.00  -0.08     0.00  -0.00   0.03     0.03  -0.01  -0.01
   9   6    -0.00  -0.00   0.53    -0.00   0.00  -0.10     0.01  -0.01   0.00
  10   6    -0.00   0.00  -0.17    -0.00   0.00  -0.61     0.01  -0.00   0.41
  11   6    -0.00  -0.00   0.02    -0.00  -0.00  -0.01     0.02   0.01   0.03
  12   1    -0.00   0.00  -0.25    -0.00  -0.00   0.04    -0.01   0.01  -0.02
  13   1    -0.00   0.00  -0.27     0.00  -0.00   0.07     0.00   0.01   0.02
  14   1    -0.00   0.00  -0.15    -0.00   0.00  -0.41    -0.00  -0.00  -0.84
  15   1     0.00   0.00  -0.27     0.00   0.00   0.08    -0.01  -0.01  -0.01
  16   1     0.00   0.00  -0.25     0.00   0.00   0.07     0.00  -0.01  -0.00
  17   1    -0.07  -0.03   0.03    -0.24  -0.11   0.10     0.14   0.06  -0.05
  18   1     0.00   0.00   0.05     0.00   0.00   0.15     0.00   0.01  -0.10
  19   1     0.07   0.03   0.03     0.23   0.11   0.10    -0.13  -0.05  -0.05
  20   1    -0.00  -0.00   0.10    -0.00  -0.00  -0.03     0.01  -0.00  -0.00
                     16                     17                     18
                        a                      a                      a 
 Frequencies --   604.3405               640.7563               665.8936
 Red. masses --    11.4728                11.5249                11.4243
 Frc consts  --     0.0000                 0.0000                 0.0000
 IR Inten    --     0.5289                 0.8426                 0.5695
 Raman Activ --     0.0000                 0.0000                 0.0000
 Depolar     --     0.0000                 0.0000                 0.0000
 Atom AN      X      Y      Z        X      Y      Z        X      Y      Z
   1   8    -0.14   0.13   0.00     0.25   0.11   0.00    -0.00   0.00  -0.08
   2   8     0.17  -0.04  -0.02    -0.33  -0.09   0.00     0.00   0.00   0.01
   3   7     0.00   0.15   0.01     0.07  -0.21   0.00     0.00  -0.00   0.08
   4   6     0.12  -0.10  -0.00    -0.15  -0.03   0.00    -0.00   0.00  -0.52
   5   6     0.45  -0.16  -0.00     0.04  -0.11  -0.00     0.00  -0.00   0.30
   6   6    -0.22  -0.37   0.00    -0.34  -0.04   0.00     0.00  -0.00   0.31
   7   6     0.33   0.34   0.00     0.05  -0.02  -0.00     0.00   0.00  -0.31
   8   6    -0.30   0.10  -0.00    -0.39   0.17   0.00     0.00   0.00  -0.30
   9   6    -0.08   0.08   0.00     0.12   0.04   0.00    -0.00  -0.00   0.53
  10   6    -0.12  -0.02   0.04     0.27  -0.10  -0.01    -0.00   0.00  -0.02
  11   6    -0.19  -0.11   0.00     0.39   0.22   0.00    -0.00  -0.00  -0.01
  12   1     0.08  -0.08  -0.00     0.02  -0.02   0.00     0.00  -0.00   0.12
  13   1    -0.03  -0.11   0.00    -0.08  -0.02   0.00     0.00  -0.00   0.11
  14   1     0.02   0.03  -0.07     0.00  -0.05   0.00     0.00  -0.00   0.02
  15   1     0.08   0.10  -0.00    -0.04   0.01   0.00     0.00   0.00  -0.12
  16   1    -0.04   0.07  -0.00    -0.16  -0.00  -0.00     0.00   0.00  -0.13
  17   1    -0.03  -0.03  -0.00     0.04   0.08  -0.00    -0.00  -0.00   0.00
  18   1    -0.07  -0.05  -0.01     0.20   0.17   0.00    -0.00  -0.00   0.00
  19   1    -0.05  -0.04  -0.00     0.03   0.07   0.00     0.00   0.00   0.00
  20   1    -0.07   0.04  -0.00     0.03   0.04   0.00    -0.00  -0.00   0.01
                     19                     20                     21
                        a                      a                      a 
 Frequencies --   784.7548               807.5726               858.2066
 Red. masses --    12.1266                 5.1053                 3.2850
 Frc consts  --     0.0000                 0.0000                 0.0000
 IR Inten    --    23.5530                58.8929                 0.0868
 Raman Activ --     0.0000                 0.0000                 0.0000
 Depolar     --     0.0000                 0.0000                 0.0000
 Atom AN      X      Y      Z        X      Y      Z        X      Y      Z
   1   8     0.41   0.06  -0.00    -0.00  -0.00  -0.06     0.00   0.00   0.00
   2   8     0.13  -0.08  -0.00    -0.00   0.00  -0.01     0.00  -0.00  -0.00
   3   7     0.30   0.43   0.00    -0.00  -0.00  -0.06     0.00   0.00   0.00
   4   6     0.19   0.02  -0.00    -0.00  -0.00   0.28     0.00   0.00   0.01
   5   6    -0.32   0.10   0.00     0.00  -0.00  -0.19    -0.00   0.00  -0.19
   6   6    -0.15  -0.29  -0.00     0.00   0.00  -0.24     0.00  -0.00   0.25
   7   6    -0.29  -0.10  -0.00     0.00   0.00  -0.24    -0.00   0.00  -0.27
   8   6    -0.16  -0.03  -0.00     0.00   0.00  -0.21    -0.00  -0.00   0.19
   9   6     0.06   0.03   0.00    -0.00  -0.00   0.30    -0.00   0.00  -0.01
  10   6    -0.00  -0.06   0.00     0.00   0.00   0.01    -0.00  -0.00   0.00
  11   6    -0.17  -0.11  -0.00     0.00   0.00   0.00     0.00   0.00   0.00
  12   1    -0.16  -0.03   0.00     0.00  -0.00   0.34     0.00  -0.00   0.35
  13   1    -0.09  -0.06   0.00     0.00  -0.00   0.42    -0.00   0.00  -0.50
  14   1     0.10   0.11  -0.00    -0.00  -0.00  -0.01    -0.00   0.00  -0.01
  15   1    -0.12  -0.01   0.00     0.00  -0.00   0.43     0.00  -0.00   0.54
  16   1    -0.05  -0.02   0.00     0.00  -0.00   0.39    -0.00   0.00  -0.36
  17   1    -0.10  -0.02  -0.00     0.00   0.00   0.00     0.00   0.00  -0.00
  18   1     0.00   0.03  -0.00     0.00   0.00   0.00    -0.00  -0.00  -0.00
  19   1    -0.10  -0.02   0.00    -0.00  -0.00   0.00    -0.00  -0.00  -0.00
  20   1     0.11   0.01  -0.00    -0.00  -0.00  -0.02     0.00  -0.00  -0.00
                     22                     23                     24
                        a                      a                      a 
 Frequencies --   876.9086               897.0811               913.1618
 Red. masses --    11.6353                 2.6393                 3.7914
 Frc consts  --     0.0000                 0.0000                 0.0000
 IR Inten    --     8.5078                 0.0197                 1.5214
 Raman Activ --     0.0000                 0.0000                 0.0000
 Depolar     --     0.0000                 0.0000                 0.0000
 Atom AN      X      Y      Z        X      Y      Z        X      Y      Z
   1   8     0.30   0.07   0.00     0.00   0.00  -0.02     0.00   0.00  -0.01
   2   8    -0.06   0.12   0.00    -0.00  -0.00   0.00     0.00  -0.00  -0.00
   3   7    -0.18  -0.40  -0.00     0.00  -0.00   0.01    -0.00   0.00  -0.00
   4   6     0.06   0.02   0.00     0.00  -0.00   0.01    -0.00   0.00   0.01
   5   6    -0.14   0.40   0.00     0.00  -0.00   0.19    -0.00   0.00  -0.30
   6   6    -0.05  -0.34  -0.00     0.00  -0.00   0.19     0.00  -0.00   0.22
   7   6     0.04   0.39   0.00    -0.00   0.00  -0.10     0.00  -0.00   0.25
   8   6     0.08  -0.34  -0.00    -0.00   0.00  -0.25    -0.00   0.00  -0.22
   9   6    -0.06  -0.03   0.00    -0.00  -0.00  -0.02    -0.00  -0.00   0.02
  10   6    -0.02   0.08  -0.00     0.00   0.00   0.00    -0.00  -0.00   0.00
  11   6    -0.01   0.07   0.00    -0.00   0.00  -0.00     0.00   0.00  -0.00
  12   1    -0.09   0.08   0.00    -0.00   0.00  -0.47     0.00  -0.00   0.55
  13   1    -0.10  -0.07   0.00    -0.00   0.00  -0.45    -0.00   0.00  -0.36
  14   1    -0.08  -0.10   0.00     0.00   0.00  -0.00    -0.00   0.00   0.00
  15   1     0.10   0.08   0.00     0.00  -0.00   0.30    -0.00   0.00  -0.43
  16   1     0.07  -0.06  -0.00     0.00  -0.00   0.58     0.00  -0.00   0.37
  17   1     0.09   0.00   0.00    -0.00  -0.00   0.00    -0.00  -0.00   0.00
  18   1    -0.10  -0.10   0.00     0.00   0.00   0.00     0.00   0.00  -0.00
  19   1     0.09   0.00  -0.00     0.00   0.00   0.00     0.00   0.00   0.00
  20   1     0.06   0.02  -0.00     0.00   0.00   0.00     0.00  -0.00   0.01
                     25                     26                     27
                        a                      a                      a 
 Frequencies --   961.7758               997.4521               999.1048
 Red. masses --    12.0989                 6.3626                 5.4181
 Frc consts  --     0.0000                 0.0000                 0.0000
 IR Inten    --    37.3815                 6.0543                27.9291
 Raman Activ --     0.0000                 0.0000                 0.0000
 Depolar     --     0.0000                 0.0000                 0.0000
 Atom AN      X      Y      Z        X      Y      Z        X      Y      Z
   1   8    -0.05  -0.01  -0.00     0.08   0.02  -0.00    -0.01  -0.00  -0.00
   2   8    -0.07   0.41  -0.00     0.05   0.14  -0.01    -0.01  -0.02  -0.09
   3   7     0.28  -0.40  -0.00    -0.13   0.07  -0.01     0.01  -0.01  -0.06
   4   6     0.13  -0.00  -0.00    -0.15  -0.04  -0.00     0.01   0.00  -0.01
   5   6    -0.01   0.05  -0.00     0.03  -0.12  -0.00    -0.00   0.01   0.00
   6   6    -0.03   0.04   0.00    -0.02   0.15   0.00     0.00  -0.01  -0.00
   7   6    -0.00  -0.17  -0.00     0.01   0.29   0.00    -0.00  -0.03   0.00
   8   6    -0.17   0.19   0.00     0.12  -0.26   0.00    -0.01   0.02   0.00
   9   6     0.05  -0.01  -0.00    -0.06  -0.01   0.00     0.01   0.00   0.00
  10   6     0.37   0.19   0.00     0.17   0.05   0.04    -0.02  -0.01   0.45
  11   6    -0.38  -0.24  -0.00     0.08  -0.38  -0.04    -0.00   0.04  -0.42
  12   1     0.04   0.04   0.00    -0.04  -0.08   0.00     0.00   0.01   0.00
  13   1     0.01   0.01  -0.00    -0.10   0.07   0.00     0.01  -0.01   0.00
  14   1     0.04  -0.10  -0.00    -0.15   0.04   0.00     0.01  -0.00   0.01
  15   1     0.02  -0.05  -0.00    -0.07   0.10  -0.00     0.01  -0.01  -0.00
  16   1    -0.08   0.03   0.00    -0.03  -0.13  -0.00     0.00   0.01  -0.00
  17   1    -0.15  -0.07   0.01    -0.37  -0.05  -0.01    -0.41  -0.27   0.13
  18   1    -0.11  -0.07   0.00     0.35   0.29   0.02    -0.02  -0.03   0.22
  19   1    -0.15  -0.07  -0.00    -0.31  -0.01   0.03     0.46   0.27   0.13
  20   1    -0.03   0.00   0.00     0.04   0.00   0.00    -0.00  -0.00   0.00
                     28                     29                     30
                        a                      a                      a 
 Frequencies --  1025.1640              1124.1945              1149.7668
 Red. masses --     7.0466                 3.7960                 2.8216
 Frc consts  --     0.0000                 0.0000                 0.0000
 IR Inten    --     6.9023                55.8524               171.8281
 Raman Activ --     0.0000                 0.0000                 0.0000
 Depolar     --     0.0000                 0.0000                 0.0000
 Atom AN      X      Y      Z        X      Y      Z        X      Y      Z
   1   8     0.10   0.02   0.00     0.07  -0.10  -0.00    -0.24   0.17   0.00
   2   8    -0.04  -0.01   0.00     0.02  -0.01  -0.00     0.00  -0.01  -0.00
   3   7     0.24  -0.03  -0.00    -0.04   0.03   0.00    -0.03   0.01   0.00
   4   6     0.03  -0.00   0.00     0.10  -0.16  -0.00     0.04  -0.03  -0.00
   5   6     0.08  -0.35  -0.00    -0.12   0.13   0.00    -0.05   0.01   0.00
   6   6    -0.03   0.35   0.00     0.11   0.12   0.00     0.06  -0.03  -0.00
   7   6    -0.08   0.27   0.00     0.05   0.17   0.00     0.06  -0.06  -0.00
   8   6     0.02  -0.27  -0.00    -0.11   0.18   0.00    -0.04  -0.06  -0.00
   9   6    -0.07  -0.01   0.00     0.09  -0.20  -0.00     0.03   0.16   0.00
  10   6     0.05  -0.00  -0.00    -0.06  -0.01   0.00    -0.00  -0.01  -0.00
  11   6    -0.17   0.16   0.00     0.03  -0.01  -0.00     0.00   0.00  -0.00
  12   1    -0.13  -0.23  -0.00    -0.35  -0.23  -0.00    -0.07  -0.04  -0.00
  13   1    -0.19   0.16   0.00     0.39  -0.08  -0.00     0.12  -0.04  -0.00
  14   1     0.15  -0.03  -0.00    -0.06   0.02   0.00    -0.03   0.01   0.00
  15   1    -0.23   0.14   0.00     0.24  -0.02  -0.00     0.31  -0.12  -0.00
  16   1    -0.19  -0.24  -0.00    -0.35  -0.23  -0.00    -0.35  -0.31  -0.00
  17   1     0.15  -0.01   0.01    -0.00   0.00  -0.00     0.00   0.00  -0.00
  18   1    -0.24  -0.19   0.00     0.03   0.02  -0.00     0.00  -0.00   0.00
  19   1     0.16  -0.00  -0.02    -0.01   0.00   0.00     0.00   0.00   0.00
  20   1     0.02   0.00  -0.00    -0.41   0.06   0.00     0.71  -0.11  -0.00
                     31                     32                     33
                        a                      a                      a 
 Frequencies --  1185.4950              1206.5302              1220.6485
 Red. masses --     1.8564                 7.9195                 6.1631
 Frc consts  --     0.0000                 0.0000                 0.0000
 IR Inten    --     1.2975               109.5468                84.2989
 Raman Activ --     0.0000                 0.0000                 0.0000
 Depolar     --     0.0000                 0.0000                 0.0000
 Atom AN      X      Y      Z        X      Y      Z        X      Y      Z
   1   8     0.03   0.04   0.00     0.02   0.02   0.00    -0.19  -0.05  -0.00
   2   8     0.00  -0.02  -0.00     0.06   0.24   0.00     0.02  -0.04  -0.00
   3   7    -0.04   0.02   0.00     0.08  -0.26  -0.00    -0.16  -0.09  -0.00
   4   6     0.06  -0.02  -0.00     0.16   0.12  -0.00     0.45  -0.03  -0.00
   5   6    -0.05  -0.08  -0.00     0.04  -0.07  -0.00     0.06   0.13   0.00
   6   6    -0.10   0.13   0.00     0.03   0.01   0.00     0.03  -0.05  -0.00
   7   6     0.09  -0.06  -0.00    -0.01  -0.08  -0.00    -0.03  -0.11  -0.00
   8   6     0.01   0.08   0.00    -0.08   0.00   0.00     0.03   0.15   0.00
   9   6    -0.05  -0.04  -0.00    -0.04   0.01   0.00     0.29   0.08   0.00
  10   6     0.08  -0.02  -0.00    -0.59   0.08   0.00    -0.13  -0.00   0.00
  11   6    -0.03   0.01  -0.00     0.20  -0.07   0.00     0.07  -0.01  -0.00
  12   1    -0.41  -0.36  -0.00    -0.13  -0.14  -0.00    -0.05  -0.03  -0.00
  13   1    -0.37   0.16   0.00    -0.05   0.02   0.00    -0.47   0.16   0.00
  14   1    -0.13   0.03   0.00     0.51  -0.16  -0.00    -0.36   0.04   0.00
  15   1     0.47  -0.17  -0.00    -0.03  -0.01  -0.00    -0.29   0.07   0.00
  16   1     0.32   0.30   0.00     0.01   0.03   0.00    -0.21  -0.15  -0.00
  17   1     0.01  -0.00  -0.00    -0.05   0.02  -0.01     0.00   0.02  -0.01
  18   1    -0.03  -0.02   0.00     0.20   0.17  -0.00     0.04   0.03   0.00
  19   1     0.01  -0.00   0.00    -0.06   0.01   0.01     0.00   0.02   0.01
  20   1     0.08  -0.00  -0.00     0.04  -0.00  -0.00    -0.07  -0.01   0.00
                     34                     35                     36
                        a                      a                      a 
 Frequencies --  1269.6225              1297.3394              1344.6337
 Red. masses --     6.6055                 7.4437                11.3975
 Frc consts  --     0.0000                 0.0000                 0.0000
 IR Inten    --   292.7315                11.8027                18.7851
 Raman Activ --     0.0000                 0.0000                 0.0000
 Depolar     --     0.0000                 0.0000                 0.0000
 Atom AN      X      Y      Z        X      Y      Z        X      Y      Z
   1   8     0.26   0.00  -0.00    -0.16  -0.11  -0.00     0.12  -0.02  -0.00
   2   8     0.02  -0.02  -0.00    -0.01   0.03   0.00    -0.00  -0.03  -0.00
   3   7     0.13  -0.02  -0.00     0.10   0.07   0.00    -0.08  -0.02  -0.00
   4   6     0.15  -0.28  -0.00    -0.32  -0.08   0.00     0.07   0.40   0.00
   5   6     0.02  -0.10  -0.00    -0.28  -0.09  -0.00    -0.25  -0.25  -0.00
   6   6     0.11   0.14   0.00     0.01  -0.21  -0.00     0.43  -0.08  -0.00
   7   6    -0.22   0.07   0.00     0.12   0.11   0.00     0.32  -0.14  -0.00
   8   6    -0.05   0.11   0.00     0.21   0.02  -0.00    -0.34  -0.20  -0.00
   9   6    -0.38  -0.01   0.00     0.36   0.27   0.00    -0.20   0.34   0.00
  10   6    -0.20   0.04   0.00     0.03   0.00   0.00     0.04   0.00  -0.00
  11   6     0.04  -0.00  -0.00    -0.02   0.01   0.00     0.01  -0.00  -0.00
  12   1     0.39   0.29   0.00     0.07   0.11   0.00    -0.00  -0.02  -0.00
  13   1    -0.22   0.13   0.00    -0.35   0.05   0.00     0.00   0.02   0.00
  14   1    -0.15   0.03   0.00     0.32  -0.04  -0.00    -0.16   0.03   0.00
  15   1     0.38  -0.14  -0.00     0.27  -0.04  -0.00     0.00  -0.01  -0.00
  16   1    -0.14  -0.07  -0.00    -0.12  -0.16  -0.00    -0.05  -0.01   0.00
  17   1    -0.00   0.01  -0.01    -0.00  -0.01   0.01    -0.01   0.01  -0.00
  18   1     0.03   0.02  -0.00    -0.01  -0.00  -0.00    -0.01  -0.02   0.00
  19   1    -0.00   0.01   0.01     0.00  -0.01  -0.01    -0.01   0.01   0.00
  20   1    -0.08   0.03   0.00    -0.26   0.02   0.00    -0.17   0.04   0.00
                     37                     38                     39
                        a                      a                      a 
 Frequencies --  1371.5345              1397.4660              1451.9293
 Red. masses --     3.2537                10.0949                 7.3445
 Frc consts  --     0.0000                 0.0000                 0.0000
 IR Inten    --    29.3535               135.3579               185.7597
 Raman Activ --     0.0000                 0.0000                 0.0000
 Depolar     --     0.0000                 0.0000                 0.0000
 Atom AN      X      Y      Z        X      Y      Z        X      Y      Z
   1   8     0.00  -0.00  -0.00    -0.14   0.04   0.00    -0.03   0.07   0.00
   2   8    -0.00   0.02   0.00     0.04   0.03   0.00    -0.01  -0.01  -0.00
   3   7    -0.01   0.00   0.00     0.50  -0.07  -0.00    -0.28   0.12   0.00
   4   6    -0.00   0.00   0.00    -0.15  -0.21  -0.00     0.14  -0.27  -0.00
   5   6    -0.01  -0.01  -0.00    -0.30   0.01   0.00    -0.23   0.03   0.00
   6   6     0.00   0.00  -0.00     0.01   0.14   0.00     0.25   0.11   0.00
   7   6     0.01   0.00  -0.00     0.29   0.13   0.00     0.20   0.10   0.00
   8   6    -0.01  -0.01  -0.00    -0.18  -0.11  -0.00    -0.25   0.05   0.00
   9   6     0.00   0.01   0.00     0.22  -0.13  -0.00     0.02  -0.29  -0.00
  10   6     0.05  -0.00  -0.00    -0.32   0.03   0.00     0.15  -0.01   0.00
  11   6    -0.37  -0.26  -0.00     0.05  -0.00  -0.00    -0.10   0.08   0.00
  12   1     0.01   0.01   0.00     0.02   0.10   0.00     0.07   0.13   0.00
  13   1     0.01  -0.00   0.00     0.06   0.02   0.00    -0.12   0.10   0.00
  14   1    -0.01  -0.00   0.00    -0.36   0.07   0.00     0.30  -0.04  -0.00
  15   1     0.00   0.00  -0.00    -0.09   0.10   0.00    -0.11   0.09   0.00
  16   1     0.01   0.00   0.00     0.15   0.14   0.00     0.03   0.11   0.00
  17   1     0.43   0.23  -0.22    -0.01   0.04  -0.02     0.09  -0.26   0.17
  18   1     0.30   0.37   0.01     0.01   0.00  -0.00     0.11   0.15   0.00
  19   1     0.43   0.22   0.22    -0.01   0.04   0.03     0.09  -0.26  -0.19
  20   1    -0.00   0.00  -0.00     0.11  -0.02  -0.00     0.14  -0.02  -0.00
                     40                     41                     42
                        a                      a                      a 
 Frequencies --  1461.3056              1472.3589              1491.5541
 Red. masses --     3.4929                 1.5799                 9.9045
 Frc consts  --     0.0000                 0.0000                 0.0000
 IR Inten    --    46.7098                10.1282               374.4489
 Raman Activ --     0.0000                 0.0000                 0.0000
 Depolar     --     0.0000                 0.0000                 0.0000
 Atom AN      X      Y      Z        X      Y      Z        X      Y      Z
   1   8     0.01  -0.04  -0.00    -0.00   0.00   0.00    -0.10  -0.04  -0.00
   2   8     0.02   0.06  -0.00     0.00  -0.00  -0.00    -0.00  -0.01  -0.00
   3   7     0.18  -0.07  -0.00    -0.00   0.00   0.01    -0.18  -0.02   0.00
   4   6    -0.07   0.15   0.00     0.00  -0.00   0.00     0.44   0.10  -0.00
   5   6     0.12  -0.02  -0.00    -0.00  -0.00  -0.00    -0.14  -0.27  -0.00
   6   6    -0.14  -0.05  -0.00     0.00   0.00   0.00    -0.27   0.18   0.00
   7   6    -0.10  -0.06  -0.00     0.00   0.00  -0.00    -0.24   0.17   0.00
   8   6     0.13  -0.05  -0.00    -0.00   0.00  -0.00    -0.12  -0.27  -0.00
   9   6    -0.01   0.17   0.00     0.00  -0.00  -0.00     0.40   0.12   0.00
  10   6    -0.11  -0.02   0.00    -0.00   0.00  -0.03     0.02  -0.00   0.00
  11   6    -0.13   0.14   0.00     0.00   0.01  -0.23     0.02   0.00   0.00
  12   1    -0.03  -0.06  -0.00     0.00   0.00   0.00     0.19   0.11   0.00
  13   1     0.08  -0.05  -0.00    -0.00   0.00  -0.00     0.23  -0.05  -0.00
  14   1    -0.25   0.04   0.00     0.00  -0.00  -0.01     0.02  -0.01  -0.00
  15   1     0.06  -0.05  -0.00     0.00   0.00   0.00     0.22  -0.04  -0.00
  16   1    -0.01  -0.06  -0.00     0.00   0.00   0.00     0.17   0.10   0.00
  17   1     0.17  -0.42   0.28     0.41  -0.19   0.07    -0.01   0.00   0.00
  18   1     0.21   0.28   0.01     0.00  -0.02   0.73    -0.00  -0.01  -0.00
  19   1     0.16  -0.41  -0.30    -0.41   0.18   0.08    -0.01   0.00  -0.00
  20   1    -0.08   0.01   0.00     0.00  -0.00   0.00    -0.06   0.00   0.00
                     43                     44                     45
                        a                      a                      a 
 Frequencies --  1586.8452              1614.7085              1750.2195
 Red. masses --    11.4957                11.5806                13.2242
 Frc consts  --     0.0000                 0.0000                 0.0000
 IR Inten    --     5.3771                17.3325               489.6346
 Raman Activ --     0.0000                 0.0000                 0.0000
 Depolar     --     0.0000                 0.0000                 0.0000
 Atom AN      X      Y      Z        X      Y      Z        X      Y      Z
   1   8    -0.04   0.05   0.00    -0.05  -0.01  -0.00     0.01   0.00   0.00
   2   8     0.00   0.01   0.00    -0.00   0.01   0.00     0.03   0.58   0.00
   3   7     0.03  -0.06  -0.00     0.05   0.01  -0.00    -0.05   0.08   0.00
   4   6    -0.07   0.51   0.00    -0.26  -0.05   0.00     0.01  -0.02  -0.00
   5   6    -0.09  -0.31  -0.00     0.37   0.18   0.00    -0.01  -0.01   0.00
   6   6     0.17  -0.24  -0.00     0.45  -0.04  -0.00     0.01   0.01  -0.00
   7   6    -0.18   0.26   0.00    -0.44   0.06   0.00     0.01  -0.00  -0.00
   8   6     0.08   0.30   0.00    -0.42  -0.21  -0.00     0.00   0.00  -0.00
   9   6     0.11  -0.53  -0.00     0.30   0.04   0.00    -0.02  -0.00   0.00
  10   6    -0.02  -0.01   0.00     0.00  -0.02  -0.00    -0.01  -0.80  -0.00
  11   6     0.00   0.00   0.00    -0.00   0.00   0.00     0.03   0.05  -0.00
  12   1     0.08   0.00  -0.00    -0.05  -0.08  -0.00     0.03   0.03  -0.00
  13   1    -0.07  -0.02   0.00    -0.08   0.06   0.00    -0.00   0.00   0.00
  14   1    -0.11   0.01   0.00    -0.01   0.00   0.00    -0.05   0.02  -0.00
  15   1     0.07   0.03   0.00     0.09  -0.05  -0.00    -0.00   0.00   0.00
  16   1    -0.06   0.00   0.00     0.06   0.09   0.00    -0.00   0.00   0.00
  17   1     0.00  -0.00   0.00     0.00   0.00  -0.00     0.02   0.02  -0.02
  18   1     0.01   0.01  -0.00    -0.00  -0.00   0.00    -0.04  -0.05   0.00
  19   1     0.00  -0.01  -0.00     0.00   0.00   0.00     0.03   0.02   0.02
  20   1     0.12  -0.02  -0.00    -0.01   0.00   0.00    -0.00   0.00   0.00
                     46                     47                     48
                        a                      a                      a 
 Frequencies --  3023.6165              3026.2296              3063.9609
 Red. masses --     1.9239                 1.4999                 1.8225
 Frc consts  --     0.0000                 0.0000                 0.0000
 IR Inten    --    17.9871                11.6396                40.0118
 Raman Activ --     0.0000                 0.0000                 0.0000
 Depolar     --     0.0000                 0.0000                 0.0000
 Atom AN      X      Y      Z        X      Y      Z        X      Y      Z
   1   8     0.00  -0.00  -0.00     0.00  -0.00   0.00    -0.00  -0.00   0.00
   2   8     0.00  -0.00  -0.00     0.00  -0.00   0.00     0.00  -0.00  -0.00
   3   7    -0.00  -0.00  -0.00    -0.00  -0.00   0.00     0.00   0.00   0.00
   4   6     0.00  -0.00   0.00     0.00  -0.00  -0.00     0.00  -0.00  -0.00
   5   6    -0.00   0.00  -0.00    -0.00   0.00   0.00     0.01  -0.01  -0.00
   6   6    -0.00  -0.00  -0.00    -0.00  -0.00   0.00     0.01   0.02   0.00
   7   6    -0.00  -0.00  -0.00    -0.00  -0.00   0.00     0.09   0.26   0.00
   8   6    -0.00   0.00  -0.00    -0.00   0.00   0.00    -0.00   0.00   0.00
   9   6    -0.00  -0.00   0.00    -0.00  -0.00  -0.00     0.01   0.00   0.00
  10   6     0.00   0.00   0.01     0.00   0.01  -0.00    -0.00   0.00  -0.00
  11   6     0.01   0.05   0.28     0.02   0.20  -0.08     0.00  -0.00  -0.00
  12   1     0.00  -0.00   0.00     0.00  -0.00  -0.00    -0.04   0.05   0.00
  13   1     0.00   0.00   0.00     0.00   0.01  -0.00    -0.02  -0.07  -0.00
  14   1     0.00   0.00   0.00     0.01   0.00  -0.00    -0.00  -0.00  -0.00
  15   1     0.00   0.00   0.00     0.00   0.00  -0.00    -0.31  -0.91  -0.00
  16   1     0.00  -0.00   0.00     0.00  -0.00  -0.00     0.01  -0.01  -0.00
  17   1    -0.05  -0.48  -0.69    -0.03  -0.24  -0.41     0.00  -0.00  -0.00
  18   1    -0.00   0.01   0.04    -0.02   0.04  -0.01    -0.02   0.02   0.00
  19   1     0.02   0.29  -0.35    -0.04  -0.49   0.69     0.00  -0.00   0.00
  20   1    -0.00   0.00   0.00    -0.00   0.00  -0.00    -0.01  -0.00  -0.00
                     49                     50                     51
                        a                      a                      a 
 Frequencies --  3066.1421              3069.5998              3112.6099
 Red. masses --     1.8143                 1.7417                 1.8495
 Frc consts  --     0.0000                 0.0000                 0.0000
 IR Inten    --    26.7332                 8.4995                18.2996
 Raman Activ --     0.0000                 0.0000                 0.0000
 Depolar     --     0.0000                 0.0000                 0.0000
 Atom AN      X      Y      Z        X      Y      Z        X      Y      Z
   1   8     0.00   0.00   0.00    -0.00   0.00  -0.00     0.00  -0.00  -0.00
   2   8    -0.00  -0.00   0.00     0.00  -0.00  -0.00    -0.00   0.00   0.00
   3   7    -0.00  -0.00   0.00     0.00  -0.00   0.00    -0.00   0.00   0.00
   4   6     0.01   0.01  -0.00     0.00   0.00  -0.00     0.00  -0.00  -0.00
   5   6    -0.00  -0.00   0.00    -0.00   0.00  -0.00     0.00  -0.00  -0.00
   6   6     0.09   0.25   0.00     0.01   0.02   0.00     0.01   0.04   0.00
   7   6    -0.01  -0.02  -0.00     0.00   0.01   0.00     0.00  -0.01  -0.00
   8   6     0.02  -0.02  -0.00     0.00  -0.00   0.00    -0.18   0.20   0.00
   9   6     0.00  -0.00  -0.00     0.00  -0.00   0.00    -0.01  -0.00   0.00
  10   6     0.00   0.00  -0.00    -0.01   0.01   0.00     0.00  -0.00  -0.00
  11   6     0.01  -0.01  -0.00    -0.19   0.17   0.00    -0.00   0.00  -0.00
  12   1     0.01  -0.00  -0.00     0.00  -0.00  -0.00    -0.00   0.00   0.00
  13   1    -0.31  -0.90  -0.00    -0.02  -0.06  -0.00    -0.04  -0.11  -0.00
  14   1    -0.01  -0.00   0.00     0.00   0.00   0.00    -0.00  -0.00  -0.00
  15   1     0.02   0.06   0.00    -0.01  -0.02  -0.00     0.01   0.02   0.00
  16   1    -0.08   0.09   0.00    -0.00   0.01   0.00     0.63  -0.72  -0.00
  17   1     0.00  -0.00  -0.00    -0.02   0.02  -0.01    -0.00  -0.00  -0.00
  18   1    -0.04   0.04   0.00     0.73  -0.63  -0.02    -0.00  -0.00  -0.00
  19   1     0.00  -0.00   0.00    -0.02   0.01   0.02    -0.00  -0.00   0.00
  20   1     0.00  -0.00  -0.00    -0.00  -0.00  -0.00     0.00   0.01   0.00
                     52                     53                     54
                        a                      a                      a 
 Frequencies --  3135.4368              3421.5680              3522.3935
 Red. masses --     1.8503                 1.8273                 1.8634
 Frc consts  --     0.0000                 0.0000                 0.0000
 IR Inten    --     1.7609                 4.1109                23.0767
 Raman Activ --     0.0000                 0.0000                 0.0000
 Depolar     --     0.0000                 0.0000                 0.0000
 Atom AN      X      Y      Z        X      Y      Z        X      Y      Z
   1   8    -0.00  -0.00  -0.00    -0.00   0.00   0.00    -0.04  -0.23  -0.00
   2   8     0.00  -0.00  -0.00    -0.00  -0.00   0.00     0.00  -0.00  -0.00
   3   7     0.00  -0.00  -0.00     0.05   0.25   0.00     0.00   0.00   0.00
   4   6     0.01   0.00  -0.00     0.00   0.01   0.00    -0.00   0.00   0.00
   5   6     0.18  -0.21  -0.00    -0.00  -0.00   0.00    -0.00  -0.00  -0.00
   6   6    -0.00   0.00   0.00    -0.00  -0.00  -0.00     0.00  -0.00  -0.00
   7   6    -0.01  -0.02  -0.00    -0.00   0.00  -0.00     0.00   0.00   0.00
   8   6     0.00  -0.00  -0.00     0.00   0.00  -0.00     0.00   0.00   0.00
   9   6    -0.00   0.00   0.00     0.00  -0.00  -0.00    -0.01  -0.01  -0.00
  10   6    -0.00   0.00   0.00     0.00   0.01  -0.00    -0.00   0.00  -0.00
  11   6    -0.00   0.00  -0.00     0.00   0.00   0.00     0.00   0.00   0.00
  12   1    -0.62   0.73   0.00     0.00  -0.00  -0.00     0.00   0.00  -0.00
  13   1     0.00  -0.00  -0.00     0.00  -0.00   0.00    -0.00  -0.00  -0.00
  14   1    -0.00  -0.00  -0.00    -0.18  -0.95  -0.00    -0.00  -0.00  -0.00
  15   1     0.02   0.06   0.00     0.00   0.00   0.00    -0.00  -0.00  -0.00
  16   1    -0.01   0.01   0.00    -0.00   0.00   0.00    -0.00   0.00   0.00
  17   1    -0.00  -0.00  -0.00    -0.00  -0.00  -0.00     0.00   0.00   0.00
  18   1     0.00  -0.00  -0.00     0.00  -0.00  -0.00    -0.00   0.00  -0.00
  19   1    -0.00  -0.00   0.00    -0.00  -0.00   0.00     0.00   0.00  -0.00
  20   1     0.00   0.00  -0.00    -0.00  -0.00  -0.00     0.20   0.95   0.00
