      -----------------------------------------------------------      
     |                   =====================                   |     
     |                           x T B                           |     
     |                   =====================                   |     
     |                         S. Grimme                         |     
     |          Mulliken Center for Theoretical Chemistry        |     
     |                    University of Bonn                     |     
      -----------------------------------------------------------      

   * xtb version 6.7.1 (edcfbbe) compiled by 'conda@c0858423619e' on 2025-09-04

   xtb is free software: you can redistribute it and/or modify it under
   the terms of the GNU Lesser General Public License as published by
   the Free Software Foundation, either version 3 of the License, or
   (at your option) any later version.
   
   xtb is distributed in the hope that it will be useful,
   but WITHOUT ANY WARRANTY; without even the implied warranty of
   MERCHANTABILITY or FITNESS FOR A PARTICULAR PURPOSE.  See the
   GNU Lesser General Public License for more details.
   
   Cite this work as:
   * C. Bannwarth, E. Caldeweyher, S. Ehlert, A. Hansen, P. Pracht,
     J. Seibert, S. Spicher, S. Grimme, WIREs Comput. Mol. Sci., 2020, 11,
     e01493. DOI: 10.1002/wcms.1493
   
   for GFN2-xTB:
   * C. Bannwarth, S. Ehlert and S. Grimme., J. Chem. Theory Comput., 2019,
     15, 1652-1671. DOI: 10.1021/acs.jctc.8b01176
   for GFN1-xTB:
   * S. Grimme, C. Bannwarth, P. Shushkov, J. Chem. Theory Comput., 2017,
     13, 1989-2009. DOI: 10.1021/acs.jctc.7b00118
   for GFN0-xTB:
   * P. Pracht, E. Caldeweyher, S. Ehlert, S. Grimme, ChemRxiv, 2019, preprint.
     DOI: 10.26434/chemrxiv.8326202.v1
   for GFN-FF:
   * S. Spicher and S. Grimme, Angew. Chem. Int. Ed., 2020, 59, 15665-15673.
     DOI: 10.1002/anie.202004239
   
   for ALPB and GBSA implicit solvation:
   * S. Ehlert, M. Stahn, S. Spicher, S. Grimme, J. Chem. Theory Comput.,
     2021, 17, 4250-4261. DOI: 10.1021/acs.jctc.1c00471
   
   for ddCOSMO and CPCM-X implicit solvation:
   * M. Stahn, S. Ehlert, S. Grimme, J. Phys. Chem. A,
     2023, XX, XXXX-XXXX. DOI: 10.1021/acs.jpca.3c04382
   
   for DFT-D4:
   * E. Caldeweyher, C. Bannwarth and S. Grimme, J. Chem. Phys., 2017,
     147, 034112. DOI: 10.1063/1.4993215
   * E. Caldeweyher, S. Ehlert, A. Hansen, H. Neugebauer, S. Spicher,
     C. Bannwarth and S. Grimme, J. Chem. Phys., 2019, 150, 154122.
     DOI: 10.1063/1.5090222
   * E. Caldeweyher, J.-M. Mewes, S. Ehlert and S. Grimme, Phys. Chem. Chem. Phys.
     2020, 22, 8499-8512. DOI: 10.1039/D0CP00502A
   
   for sTDA-xTB:
   * S. Grimme and C. Bannwarth, J. Chem. Phys., 2016, 145, 054103.
     DOI: 10.1063/1.4959605
   
   in the mass-spec context:
   * V. Asgeirsson, C. Bauer and S. Grimme, Chem. Sci., 2017, 8, 4879.
     DOI: 10.1039/c7sc00601b
   * J. Koopman and S. Grimme, ACS Omega 2019, 4, 12, 15120-15133.
     DOI: 10.1021/acsomega.9b02011
   
   for metadynamics refer to:
   * S. Grimme, J. Chem. Theory Comput., 2019, 155, 2847-2862
     DOI: 10.1021/acs.jctc.9b00143
   
   for SPH calculations refer to:
   * S. Spicher and S. Grimme, J. Chem. Theory Comput., 2021, 17, 1701-1714
     DOI: 10.1021/acs.jctc.0c01306
   
   for ONIOM refer to:
   * C. Plett, A. Katbashev, S. Ehlert, S. Grimme, M. Bursch,
     Phys. Chem. Chem. Phys., 2023, 25, 17860-17868. DOI: 10.1039/D3CP02178E
   
   for DIPRO refer to:
   * J. Kohn, N. Gildemeister, S. Grimme, D. Fazzi, A. Hansen,
     J. Chem. Phys., 2023, just accepted.
   
   for PTB refer to:
   * S. Grimme, M. Mueller, A. Hansen, J. Chem. Phys., 2023, 158, 124111.
     DOI: 10.1063/5.0137838
   
   with help from (in alphabetical order)
   P. Atkinson, C. Bannwarth, F. Bohle, G. Brandenburg, E. Caldeweyher
   M. Checinski, S. Dohm, S. Ehlert, S. Ehrlich, I. Gerasimov, C. Hölzer
   A. Katbashev, J. Kohn, J. Koopman, C. Lavigne, S. Lehtola, F. März, M. Müller,
   F. Musil, H. Neugebauer, J. Pisarek, C. Plett, P. Pracht, F. Pultar,
   J. Seibert, P. Shushkov, S. Spicher, M. Stahn, M. Steiner, T. Strunk,
   J. Stückrath, T. Rose, and J. Unsleber
   
 * started run on 2026/06/07 at 22:16:10.696     
   ID    Z sym.   atoms
    1    6 C      1, 2, 5, 6, 9-12, 14, 15
    2    8 O      3, 4, 7, 13
    3    7 N      8
    4    1 H      16-28

           -------------------------------------------------
          |                Calculation Setup                |
           -------------------------------------------------

          program call               : xtb xtbopt.xyz --hess --alpb water
          hostname                   : fedora
          coordinate file            : xtbopt.xyz
          omp threads                :                    16


           -------------------------------------------------
          |                 G F N 2 - x T B                 |
           -------------------------------------------------

        Reference                      10.1021/acs.jctc.8b01176
      * Hamiltonian:
        H0-scaling (s, p, d)           1.850000    2.230000    2.230000
        zeta-weighting                 0.500000
      * Dispersion:
        s8                             2.700000
        a1                             0.520000
        a2                             5.000000
        s9                             5.000000
      * Repulsion:
        kExp                           1.500000    1.000000
        rExp                           1.000000
      * Coulomb:
        alpha                          2.000000
        third order                    shell-resolved
        anisotropic                    true
        a3                             3.000000
        a5                             4.000000
        cn-shift                       1.200000
        cn-exp                         4.000000
        max-rad                        5.000000

      * Solvation model:               ALPB
        Solvent                        water
        Parameter file                 internal GFN2-xTB/ALPB
        Dielectric constant                8.0200E+01
        Reference state                gsolv [1 M gas/solution]
        Free energy shift                  1.0808E-03 Eh       6.7819E-01 kcal/mol
        Temperature                        2.9815E+02 K
        Density                            1.0000E+00 kg/L
        Solvent mass                       1.8000E+01 g/mol
        Interaction kernel             P16
        Born radius scaling (c1)           1.4744E+00
        Born radii integrator          GBOBC
        Born offset                        0.0000E+00 a0       0.0000E+00 AA
        H-bond correction              true
        Ion screening                  false
        Surface tension                    1.0000E-05 Eh       1.5569E+01 dyn/cm
        Grid points                               230 per atom

          ...................................................
          :                      SETUP                      :
          :.................................................:
          :  # basis functions                  73          :
          :  # atomic orbitals                  73          :
          :  # shells                           43          :
          :  # electrons                        82          :
          :  max. iterations                   250          :
          :  Hamiltonian                  GFN2-xTB          :
          :  restarted?                      false          :
          :  GBSA solvation                   true          :
          :  PC potential                    false          :
          :  electronic temp.          300.0000000     K    :
          :  accuracy                    1.0000000          :
          :  -> integral cutoff          0.2500000E+02      :
          :  -> integral neglect         0.1000000E-07      :
          :  -> SCF convergence          0.1000000E-05 Eh   :
          :  -> wf. convergence          0.1000000E-03 e    :
          :  Broyden damping             0.4000000          :
          :  net charge                          0          :
          :  unpaired electrons                  0          :
          ...................................................

 iter      E             dE          RMSdq      gap      omega  full diag
   1    -47.7751213 -0.477751E+02  0.457E+00    3.29       0.0  T
   2    -47.8322070 -0.570857E-01  0.253E+00    2.74       1.0  T
   3    -47.8325633 -0.356300E-03  0.101E+00    3.12       1.0  T
   4    -47.8366877 -0.412442E-02  0.163E-01    2.81       1.0  T
   5    -47.8368932 -0.205464E-03  0.720E-02    2.82       1.0  T
   6    -47.8369114 -0.181982E-04  0.334E-02    2.82       1.0  T
   7    -47.8369175 -0.611564E-05  0.116E-02    2.81       1.6  T
   8    -47.8369183 -0.763751E-06  0.401E-03    2.81       4.7  T
   9    -47.8369183 -0.600141E-07  0.235E-03    2.81       8.0  T
  10    -47.8369184 -0.296463E-07  0.930E-04    2.81      20.3  T
  11    -47.8369184 -0.379464E-08  0.365E-04    2.81      51.8  T

   *** convergence criteria satisfied after 11 iterations ***

         #    Occupation            Energy/Eh            Energy/eV
      -------------------------------------------------------------
         1        2.0000           -0.7614640             -20.7205
       ...           ...                  ...                  ...
        35        2.0000           -0.4500788             -12.2473
        36        2.0000           -0.4451570             -12.1133
        37        2.0000           -0.4326094             -11.7719
        38        2.0000           -0.4169324             -11.3453
        39        2.0000           -0.4139825             -11.2650
        40        2.0000           -0.3995066             -10.8711
        41        2.0000           -0.3517085              -9.5705 (HOMO)
        42                         -0.2483627              -6.7583 (LUMO)
        43                         -0.2177818              -5.9261
        44                         -0.1979002              -5.3851
        45                         -0.0803835              -2.1873
        46                         -0.0344464              -0.9373
       ...                                ...                  ...
        73                          0.6757626              18.3884
      -------------------------------------------------------------
                  HL-Gap            0.1033458 Eh            2.8122 eV
             Fermi-level           -0.3000356 Eh           -8.1644 eV

 SCC (total)                   0 d,  0 h,  0 min,  1.612 sec
 SCC setup                      ...        0 min,  0.004 sec (  0.242%)
 Dispersion                     ...        0 min,  0.001 sec (  0.087%)
 classical contributions        ...        0 min,  0.001 sec (  0.055%)
 integral evaluation            ...        0 min,  0.003 sec (  0.191%)
 iterations                     ...        0 min,  1.592 sec ( 98.752%)
 molecular gradient             ...        0 min,  0.011 sec (  0.662%)
 printout                       ...        0 min,  0.000 sec (  0.008%)

         :::::::::::::::::::::::::::::::::::::::::::::::::::::
         ::                     SUMMARY                     ::
         :::::::::::::::::::::::::::::::::::::::::::::::::::::
         :: total energy             -47.272711123905 Eh    ::
         :: total w/o Gsasa/hb       -47.262860564927 Eh    ::
         :: gradient norm              0.000884062255 Eh/a0 ::
         :: HOMO-LUMO gap              2.812181431935 eV    ::
         ::.................................................::
         :: SCC energy               -47.836968845395 Eh    ::
         :: -> isotropic ES            0.125456906429 Eh    ::
         :: -> anisotropic ES         -0.002805053159 Eh    ::
         :: -> anisotropic XC          0.009786262323 Eh    ::
         :: -> dispersion             -0.024481729116 Eh    ::
         :: -> Gsolv                  -0.023427180605 Eh    ::
         ::    -> Gelec               -0.013576621627 Eh    ::
         ::    -> Gsasa                0.001947109226 Eh    ::
         ::    -> Ghb                 -0.012878427902 Eh    ::
         ::    -> Gshift               0.001080759698 Eh    ::
         :: repulsion energy           0.564257721490 Eh    ::
         :: add. restraining           0.000000000000 Eh    ::
         :: total charge              -0.000000000000 e     ::
         :::::::::::::::::::::::::::::::::::::::::::::::::::::

           ------------------------------------------------- 
          |                Numerical Hessian                |
           ------------------------------------------------- 
step length          :   0.00500
SCC accuracy         :   0.30000
Hessian scale factor :   1.00000
frozen atoms in %    :   0.00000    0
RMS gradient         :   0.00089
estimated CPU  time      2.68 min
estimated wall time      0.20 min

writing file <hessian>.

 projected vibrational frequencies (cm⁻¹)
eigval :       -0.00    -0.00    -0.00     0.00     0.00     0.00
eigval :       19.78    27.67    61.05    72.76   104.37   116.33
eigval :      153.01   176.15   185.18   241.54   277.00   326.89
eigval :      336.08   359.51   369.01   386.35   393.89   410.04
eigval :      417.49   468.02   476.92   497.59   534.03   559.86
eigval :      595.08   612.22   659.92   701.23   768.41   796.97
eigval :      827.69   848.28   855.51   888.17   902.93   906.76
eigval :      967.10   985.59   996.84  1001.22  1017.55  1053.05
eigval :     1082.11  1106.99  1124.31  1137.41  1189.20  1194.87
eigval :     1209.05  1259.22  1268.25  1292.19  1345.40  1354.91
eigval :     1365.86  1381.41  1416.60  1418.74  1434.80  1455.28
eigval :     1460.63  1491.55  1582.28  1622.51  1700.03  3032.44
eigval :     3041.35  3050.56  3059.73  3070.85  3073.00  3074.82
eigval :     3084.09  3103.66  3121.91  3379.15  3430.83  3468.90
           -------------------------------------------------
          |                Property Printout                |
           -------------------------------------------------

    * Orbital Energies and Occupations

         #    Occupation            Energy/Eh            Energy/eV
      -------------------------------------------------------------
         1        2.0000           -0.7614669             -20.7206
       ...           ...                  ...                  ...
        29        2.0000           -0.4801384             -13.0652
        30        2.0000           -0.4774625             -12.9924
        31        2.0000           -0.4760256             -12.9533
        32        2.0000           -0.4720663             -12.8456
        33        2.0000           -0.4701085             -12.7923
        34        2.0000           -0.4647694             -12.6470
        35        2.0000           -0.4500809             -12.2473
        36        2.0000           -0.4451621             -12.1135
        37        2.0000           -0.4326111             -11.7719
        38        2.0000           -0.4169346             -11.3454
        39        2.0000           -0.4139848             -11.2651
        40        2.0000           -0.3995081             -10.8712
        41        2.0000           -0.3517122              -9.5706 (HOMO)
        42                         -0.2483640              -6.7583 (LUMO)
        43                         -0.2177835              -5.9262
        44                         -0.1979040              -5.3852
        45                         -0.0803863              -2.1874
        46                         -0.0344495              -0.9374
        47                          0.0080878               0.2201
        48                          0.0664817               1.8091
        49                          0.0759957               2.0679
        50                          0.0965943               2.6285
        51                          0.1284378               3.4950
        52                          0.1395034               3.7961
       ...                                ...                  ...
        73                          0.6757601              18.3884
      -------------------------------------------------------------
                  HL-Gap            0.1033482 Eh            2.8122 eV
             Fermi-level           -0.3000381 Eh           -8.1645 eV

     #   Z          covCN         q      C6AA      α(0)
     1   6 C        3.754    -0.176    23.992     6.984
     2   6 C        2.700     0.380    20.572     7.423
     3   8 O        0.856    -0.480    23.348     6.478
     4   8 O        1.703    -0.310    19.160     5.910
     5   6 C        3.595     0.343    16.027     5.796
     6   6 C        3.753    -0.148    23.420     6.901
     7   8 O        1.656    -0.498    22.850     6.453
     8   7 N        2.694    -0.238    26.224     7.606
     9   6 C        2.901     0.069    26.458     8.434
    10   6 C        2.922    -0.061    29.505     8.908
    11   6 C        2.919    -0.077    29.925     8.971
    12   6 C        2.845     0.130    25.146     8.218
    13   8 O        1.659    -0.469    22.226     6.364
    14   6 C        2.919    -0.061    29.528     8.911
    15   6 C        2.928    -0.065    29.608     8.924
    16   1 H        0.925     0.099     1.797     2.097
    17   1 H        0.925     0.116     1.645     2.005
    18   1 H        0.925     0.113     1.675     2.024
    19   1 H        0.925     0.067     2.122     2.278
    20   1 H        0.925     0.075     2.034     2.230
    21   1 H        0.925     0.077     2.008     2.216
    22   1 H        0.804     0.366     0.551     1.166
    23   1 H        0.860     0.206     1.076     1.625
    24   1 H        0.926     0.041     2.432     2.439
    25   1 H        0.926     0.042     2.427     2.436
    26   1 H        0.805     0.367     0.550     1.165
    27   1 H        0.926     0.048     2.339     2.392
    28   1 H        0.926     0.044     2.402     2.424

 Mol. C6AA /au·bohr⁶  :       8229.857589
 Mol. C8AA /au·bohr⁸  :     189956.870704
 Mol. α(0) /au        :        138.777416


Wiberg/Mayer (AO) data.
largest (>0.10) Wiberg bond orders for each atom

 ---------------------------------------------------------------------------
     #   Z sym  total        # sym  WBO       # sym  WBO       # sym  WBO
 ---------------------------------------------------------------------------
     1   6 C    3.978 --     2 C    1.006    16 H    0.977    18 H    0.956
                            17 H    0.943
     2   6 C    3.894 --     3 O    1.694     4 O    1.140     1 C    1.006
     3   8 O    1.981 --     2 C    1.694     4 O    0.161
     4   8 O    2.287 --     2 C    1.140     5 C    0.870     3 O    0.161
     5   6 C    3.904 --     7 O    1.004     8 N    1.003     6 C    0.974
                             4 O    0.870
     6   6 C    3.985 --    20 H    0.981    19 H    0.980    21 H    0.974
                             5 C    0.974
     7   8 O    1.962 --     5 C    1.004    22 H    0.832
     8   7 N    3.260 --     9 C    1.101     5 C    1.003    23 H    0.921
     9   6 C    3.965 --    10 C    1.370    15 C    1.344     8 N    1.101
    10   6 C    3.988 --    11 C    1.442     9 C    1.370    24 H    0.964
                            14 C    0.104
    11   6 C    3.987 --    10 C    1.442    12 C    1.382    25 H    0.966
                            15 C    0.104
    12   6 C    3.937 --    11 C    1.382    14 C    1.355    13 O    1.056
    13   8 O    2.050 --    12 C    1.056    26 H    0.846
    14   6 C    3.988 --    15 C    1.476    12 C    1.355    27 H    0.968
                            10 C    0.104
    15   6 C    3.987 --    14 C    1.476     9 C    1.344    28 H    0.967
                            11 C    0.104
    16   1 H    0.990 --     1 C    0.977
    17   1 H    0.986 --     1 C    0.943
    18   1 H    0.987 --     1 C    0.956
    19   1 H    0.995 --     6 C    0.980
    20   1 H    0.994 --     6 C    0.981
    21   1 H    0.994 --     6 C    0.974
    22   1 H    0.866 --     7 O    0.832
    23   1 H    0.957 --     8 N    0.921
    24   1 H    0.998 --    10 C    0.964
    25   1 H    0.998 --    11 C    0.966
    26   1 H    0.865 --    13 O    0.846
    27   1 H    0.997 --    14 C    0.968
    28   1 H    0.998 --    15 C    0.967
 ---------------------------------------------------------------------------

Topologies differ in total number of bonds
Writing topology from bond orders to xtbtopo.mol

molecular dipole:
                 x           y           z       tot (Debye)
 q only:       -0.702       0.053       0.685
   full:       -0.845      -0.183       0.585       2.654
molecular quadrupole (traceless):
                xx          xy          yy          xz          yz          zz
 q only:       36.232     -19.324     -19.843     -12.007       4.089     -16.389
  q+dip:       41.415     -19.826     -23.087      -9.856       4.081     -18.328
   full:       40.915     -19.418     -24.794      -9.432       4.030     -16.120

           -------------------------------------------------
          |               Frequency Printout                |
           -------------------------------------------------
 projected vibrational frequencies (cm⁻¹)
eigval :       -0.00    -0.00    -0.00     0.00     0.00     0.00
eigval :       19.78    27.67    61.05    72.76   104.37   116.33
eigval :      153.01   176.15   185.18   241.54   277.00   326.89
eigval :      336.08   359.51   369.01   386.35   393.89   410.04
eigval :      417.49   468.02   476.92   497.59   534.03   559.86
eigval :      595.08   612.22   659.92   701.23   768.41   796.97
eigval :      827.69   848.28   855.51   888.17   902.93   906.76
eigval :      967.10   985.59   996.84  1001.22  1017.55  1053.05
eigval :     1082.11  1106.99  1124.31  1137.41  1189.20  1194.87
eigval :     1209.05  1259.22  1268.25  1292.19  1345.40  1354.91
eigval :     1365.86  1381.41  1416.60  1418.74  1434.80  1455.28
eigval :     1460.63  1491.55  1582.28  1622.51  1700.03  3032.44
eigval :     3041.35  3050.56  3059.73  3070.85  3073.00  3074.82
eigval :     3084.09  3103.66  3121.91  3379.15  3430.83  3468.90
 reduced masses (amu)
   1: 11.48   2: 12.29   3: 12.66   4: 12.22   5: 12.67   6: 12.80   7:  3.83   8: 10.11
   9: 10.24  10: 11.96  11: 13.29  12: 12.23  13: 10.68  14:  5.48  15:  9.45  16: 13.76
  17: 11.70  18: 10.28  19: 10.93  20:  4.23  21:  8.50  22:  9.25  23:  9.92  24:  3.58
  25:  9.08  26:  8.12  27: 12.15  28:  9.39  29: 11.26  30: 11.40  31: 10.85  32: 11.40
  33: 11.49  34: 10.75  35: 11.97  36:  5.17  37: 13.10  38:  8.64  39:  6.31  40:  2.89
  41: 10.05  42:  4.28  43: 12.77  44:  6.95  45:  6.63  46:  6.28  47:  7.77  48:  5.56
  49:  6.44  50:  4.03  51: 10.19  52:  2.68  53:  2.62  54: 10.44  55:  6.12  56:  8.37
  57:  6.80  58:  5.41  59: 10.39  60:  3.79  61:  9.38  62:  3.62  63:  1.78  64:  1.63
  65:  9.52  66:  1.64  67:  1.63  68:  9.72  69: 11.54  70: 11.60  71: 13.25  72:  1.81
  73:  1.67  74:  1.49  75:  1.76  76:  1.82  77:  1.89  78:  1.74  79:  1.79  80:  1.86
  81:  1.84  82:  1.87  83:  1.83  84:  1.87
 IR intensities (km·mol⁻¹)
   1:  0.22   2:  0.21   3:  0.01   4:  0.05   5:  0.09   6:  0.03   7:  3.22   8:  0.59
   9:  3.67  10:  2.64  11:  7.80  12:  0.30  13:  3.23  14:  1.82  15:  0.00  16:  5.61
  17: 32.31  18:  3.07  19: 10.42  20:173.73  21: 51.48  22: 26.86  23: 13.36  24:183.49
  25: 23.36  26:198.88  27: 24.36  28: 19.20  29: 36.16  30: 27.77  31: 39.98  32:  7.93
  33:  1.30  34: 42.47  35: 26.03  36: 58.15  37:  9.98  38: 92.02  39: 46.87  40:  1.31
  41: 47.12  42:  9.56  43: 42.78  44: 14.69  45:130.04  46: 53.61  47: 23.33  48:152.10
  49:189.72  50:363.43  51:220.26  52: 62.77  53:108.23  54:763.41  55:224.80  56:360.77
  57: 49.77  58:  9.53  59: 68.43  60: 91.74  61:110.03  62: 26.76  63: 31.63  64: 32.99
  65:117.92  66:  5.19  67:  2.11  68:521.98  69: 29.45  70:  6.50  71:703.68  72:  0.30
  73: 16.23  74:  0.21  75: 10.20  76: 94.11  77:  4.81  78:  5.65  79: 59.80  80: 89.69
  81: 45.06  82:147.45  83: 31.67  84:134.87
 Raman intensities (Ä⁴*amu⁻¹)
   1:  0.00   2:  0.00   3:  0.00   4:  0.00   5:  0.00   6:  0.00   7:  0.00   8:  0.00
   9:  0.00  10:  0.00  11:  0.00  12:  0.00  13:  0.00  14:  0.00  15:  0.00  16:  0.00
  17:  0.00  18:  0.00  19:  0.00  20:  0.00  21:  0.00  22:  0.00  23:  0.00  24:  0.00
  25:  0.00  26:  0.00  27:  0.00  28:  0.00  29:  0.00  30:  0.00  31:  0.00  32:  0.00
  33:  0.00  34:  0.00  35:  0.00  36:  0.00  37:  0.00  38:  0.00  39:  0.00  40:  0.00
  41:  0.00  42:  0.00  43:  0.00  44:  0.00  45:  0.00  46:  0.00  47:  0.00  48:  0.00
Refinement of some symmetry elements was terminated before convergence was reached.
Some symmetry elements may remain unidentified.
Molecule has no symmetry elements
It seems to be the C1 point group
  49:  0.00  50:  0.00  51:  0.00  52:  0.00  53:  0.00  54:  0.00  55:  0.00  56:  0.00
  57:  0.00  58:  0.00  59:  0.00  60:  0.00  61:  0.00  62:  0.00  63:  0.00  64:  0.00
  65:  0.00  66:  0.00  67:  0.00  68:  0.00  69:  0.00  70:  0.00  71:  0.00  72:  0.00
  73:  0.00  74:  0.00  75:  0.00  76:  0.00  77:  0.00  78:  0.00  79:  0.00  80:  0.00
  81:  0.00  82:  0.00  83:  0.00  84:  0.00
 output can be read by thermo (or use thermo option).
 writing <g98.out> molden fake output.
 recommended (thermochemical) frequency scaling factor: 1.0
           -------------------------------------------------
          |             Thermodynamic Functions             |
           -------------------------------------------------

c1  symmetry found (for desy threshold:  0.10E+00) used in thermo

          ...................................................
          :                      SETUP                      :
          :.................................................:
          :  # frequencies                          78      :
          :  # imaginary freq.                       0      :
          :  linear?                             false      :
          :  only rotor calc.                    false      :
          :  symmetry                               c1      :
          :  rotational number                       1      :
          :  scaling factor                  1.0000000      :
          :  rotor cutoff                   50.0000000 cm⁻¹ :
          :  imag. cutoff                  -20.0000000 cm⁻¹ :
          :.................................................:

    mode    ω/cm⁻¹     T·S(HO)/kcal·mol⁻¹    T·S(FR)/kcal·mol⁻¹   T·S(vib)
   ------------------------------------------------------------------------
       1     19.78    -1.98465 (  2.39%)    -1.33116 ( 97.61%)    -1.34677
       2     27.67    -1.78587 (  8.57%)    -1.23171 ( 91.43%)    -1.27923
       3     61.05    -1.31869 ( 68.97%)    -0.99734 ( 31.03%)    -1.21898
       4     72.76    -1.21565 ( 81.76%)    -0.94538 ( 18.24%)    -1.16636
       5    104.37    -1.00509 ( 95.00%)    -0.83852 (  5.00%)    -0.99675
       6    116.33    -0.94231 ( 96.70%)    -0.80638 (  3.30%)    -0.93782
       7    153.01    -0.78547 ( 98.87%)    -0.72519 (  1.13%)    -0.78479
       8    176.15    -0.70626 ( 99.36%)    -0.68347 (  0.64%)    -0.70611
       9    185.18    -0.67845 ( 99.47%)    -0.66866 (  0.53%)    -0.67840
      10    241.54    -0.53414 ( 99.82%)    -0.58995 (  0.18%)    -0.53424
      11    277.00    -0.46277 ( 99.89%)    -0.54938 (  0.11%)    -0.46286
   ------------------------------------------------------------------------

   temp. (K)  partition function   enthalpy   heat capacity  entropy
                                   cal/mol     cal/K/mol   cal/K/mol   J/K/mol
 298.15  VIB  0.787E+06             8120.322     50.797     49.832
         ROT  0.248E+07              888.752      2.981     32.241
         INT  0.195E+13             9009.075     53.778     82.073
         TR   0.297E+28             1481.254      4.968     41.928
         TOT                       10490.3286    58.7462   124.0004   518.8177

       T/K    H(0)-H(T)+PV         H(T)/Eh          T*S/Eh         G(T)/Eh
   ------------------------------------------------------------------------
    298.15    0.167174E-01    0.231412E+00    0.589166E-01    0.172495E+00
   ------------------------------------------------------------------------

         :::::::::::::::::::::::::::::::::::::::::::::::::::::
         ::                  THERMODYNAMIC                  ::
         :::::::::::::::::::::::::::::::::::::::::::::::::::::
         :: total free energy         -47.100215865302 Eh   ::
         ::.................................................::
         :: total energy              -47.272711123828 Eh   ::
         :: zero point energy           0.214694444630 Eh   ::
         :: G(RRHO) w/o ZPVE           -0.042199186105 Eh   ::
         :: G(RRHO) contrib.            0.172495258525 Eh   ::
         :::::::::::::::::::::::::::::::::::::::::::::::::::::

           -------------------------------------------------
          | TOTAL ENERGY              -47.272711123828 Eh   |
          | TOTAL ENTHALPY            -47.041299276435 Eh   |
          | TOTAL FREE ENERGY         -47.100215865302 Eh   |
          | GRADIENT NORM               0.000885874446 Eh/α |
          | HOMO-LUMO GAP               2.812247774528 eV   |
           -------------------------------------------------

------------------------------------------------------------------------
 * finished run on 2026/06/07 at 22:16:19.543     
------------------------------------------------------------------------
 total:
 * wall-time:     0 d,  0 h,  0 min,  8.847 sec
 *  cpu-time:     0 d,  0 h,  1 min, 55.617 sec
 * ratio c/w:    13.069 speedup
 SCF:
 * wall-time:     0 d,  0 h,  0 min,  1.612 sec
 *  cpu-time:     0 d,  0 h,  0 min, 21.353 sec
 * ratio c/w:    13.248 speedup
 analytical hessian:
 * wall-time:     0 d,  0 h,  0 min,  7.172 sec
 *  cpu-time:     0 d,  0 h,  1 min, 33.459 sec
 * ratio c/w:    13.031 speedup

