      -----------------------------------------------------------      
     |                   =====================                   |     
     |                           x T B                           |     
     |                   =====================                   |     
     |                         S. Grimme                         |     
     |          Mulliken Center for Theoretical Chemistry        |     
     |                    University of Bonn                     |     
      -----------------------------------------------------------      

   * xtb version 6.7.1 (edcfbbe) compiled by 'conda@c0858423619e' on 2025-09-04

   xtb is free software: you can redistribute it and/or modify it under
   the terms of the GNU Lesser General Public License as published by
   the Free Software Foundation, either version 3 of the License, or
   (at your option) any later version.
   
   xtb is distributed in the hope that it will be useful,
   but WITHOUT ANY WARRANTY; without even the implied warranty of
   MERCHANTABILITY or FITNESS FOR A PARTICULAR PURPOSE.  See the
   GNU Lesser General Public License for more details.
   
   Cite this work as:
   * C. Bannwarth, E. Caldeweyher, S. Ehlert, A. Hansen, P. Pracht,
     J. Seibert, S. Spicher, S. Grimme, WIREs Comput. Mol. Sci., 2020, 11,
     e01493. DOI: 10.1002/wcms.1493
   
   for GFN2-xTB:
   * C. Bannwarth, S. Ehlert and S. Grimme., J. Chem. Theory Comput., 2019,
     15, 1652-1671. DOI: 10.1021/acs.jctc.8b01176
   for GFN1-xTB:
   * S. Grimme, C. Bannwarth, P. Shushkov, J. Chem. Theory Comput., 2017,
     13, 1989-2009. DOI: 10.1021/acs.jctc.7b00118
   for GFN0-xTB:
   * P. Pracht, E. Caldeweyher, S. Ehlert, S. Grimme, ChemRxiv, 2019, preprint.
     DOI: 10.26434/chemrxiv.8326202.v1
   for GFN-FF:
   * S. Spicher and S. Grimme, Angew. Chem. Int. Ed., 2020, 59, 15665-15673.
     DOI: 10.1002/anie.202004239
   
   for ALPB and GBSA implicit solvation:
   * S. Ehlert, M. Stahn, S. Spicher, S. Grimme, J. Chem. Theory Comput.,
     2021, 17, 4250-4261. DOI: 10.1021/acs.jctc.1c00471
   
   for ddCOSMO and CPCM-X implicit solvation:
   * M. Stahn, S. Ehlert, S. Grimme, J. Phys. Chem. A,
     2023, XX, XXXX-XXXX. DOI: 10.1021/acs.jpca.3c04382
   
   for DFT-D4:
   * E. Caldeweyher, C. Bannwarth and S. Grimme, J. Chem. Phys., 2017,
     147, 034112. DOI: 10.1063/1.4993215
   * E. Caldeweyher, S. Ehlert, A. Hansen, H. Neugebauer, S. Spicher,
     C. Bannwarth and S. Grimme, J. Chem. Phys., 2019, 150, 154122.
     DOI: 10.1063/1.5090222
   * E. Caldeweyher, J.-M. Mewes, S. Ehlert and S. Grimme, Phys. Chem. Chem. Phys.
     2020, 22, 8499-8512. DOI: 10.1039/D0CP00502A
   
   for sTDA-xTB:
   * S. Grimme and C. Bannwarth, J. Chem. Phys., 2016, 145, 054103.
     DOI: 10.1063/1.4959605
   
   in the mass-spec context:
   * V. Asgeirsson, C. Bauer and S. Grimme, Chem. Sci., 2017, 8, 4879.
     DOI: 10.1039/c7sc00601b
   * J. Koopman and S. Grimme, ACS Omega 2019, 4, 12, 15120-15133.
     DOI: 10.1021/acsomega.9b02011
   
   for metadynamics refer to:
   * S. Grimme, J. Chem. Theory Comput., 2019, 155, 2847-2862
     DOI: 10.1021/acs.jctc.9b00143
   
   for SPH calculations refer to:
   * S. Spicher and S. Grimme, J. Chem. Theory Comput., 2021, 17, 1701-1714
     DOI: 10.1021/acs.jctc.0c01306
   
   for ONIOM refer to:
   * C. Plett, A. Katbashev, S. Ehlert, S. Grimme, M. Bursch,
     Phys. Chem. Chem. Phys., 2023, 25, 17860-17868. DOI: 10.1039/D3CP02178E
   
   for DIPRO refer to:
   * J. Kohn, N. Gildemeister, S. Grimme, D. Fazzi, A. Hansen,
     J. Chem. Phys., 2023, just accepted.
   
   for PTB refer to:
   * S. Grimme, M. Mueller, A. Hansen, J. Chem. Phys., 2023, 158, 124111.
     DOI: 10.1063/5.0137838
   
   with help from (in alphabetical order)
   P. Atkinson, C. Bannwarth, F. Bohle, G. Brandenburg, E. Caldeweyher
   M. Checinski, S. Dohm, S. Ehlert, S. Ehrlich, I. Gerasimov, C. Hölzer
   A. Katbashev, J. Kohn, J. Koopman, C. Lavigne, S. Lehtola, F. März, M. Müller,
   F. Musil, H. Neugebauer, J. Pisarek, C. Plett, P. Pracht, F. Pultar,
   J. Seibert, P. Shushkov, S. Spicher, M. Stahn, M. Steiner, T. Strunk,
   J. Stückrath, T. Rose, and J. Unsleber
   
 * started run on 2026/06/07 at 13:50:40.261     
   ID    Z sym.   atoms
    1    8 O      1-3
    2    6 C      4-7
    3    1 H      8-13

           -------------------------------------------------
          |                Calculation Setup                |
           -------------------------------------------------

          program call               : xtb xtbopt.xyz --hess
          hostname                   : fedora
          coordinate file            : xtbopt.xyz
          omp threads                :                    16


           -------------------------------------------------
          |                 G F N 2 - x T B                 |
           -------------------------------------------------

        Reference                      10.1021/acs.jctc.8b01176
      * Hamiltonian:
        H0-scaling (s, p, d)           1.850000    2.230000    2.230000
        zeta-weighting                 0.500000
      * Dispersion:
        s8                             2.700000
        a1                             0.520000
        a2                             5.000000
        s9                             5.000000
      * Repulsion:
        kExp                           1.500000    1.000000
        rExp                           1.000000
      * Coulomb:
        alpha                          2.000000
        third order                    shell-resolved
        anisotropic                    true
        a3                             3.000000
        a5                             4.000000
        cn-shift                       1.200000
        cn-exp                         4.000000
        max-rad                        5.000000


          ...................................................
          :                      SETUP                      :
          :.................................................:
          :  # basis functions                  34          :
          :  # atomic orbitals                  34          :
          :  # shells                           20          :
          :  # electrons                        40          :
          :  max. iterations                   250          :
          :  Hamiltonian                  GFN2-xTB          :
          :  restarted?                      false          :
          :  GBSA solvation                  false          :
          :  PC potential                    false          :
          :  electronic temp.          300.0000000     K    :
          :  accuracy                    1.0000000          :
          :  -> integral cutoff          0.2500000E+02      :
          :  -> integral neglect         0.1000000E-07      :
          :  -> SCF convergence          0.1000000E-05 Eh   :
          :  -> wf. convergence          0.1000000E-03 e    :
          :  Broyden damping             0.4000000          :
          :  net charge                          0          :
          :  unpaired electrons                  0          :
          ...................................................

 iter      E             dE          RMSdq      gap      omega  full diag
   1    -23.9972648 -0.239973E+02  0.515E+00    4.83       0.0  T
   2    -24.0611911 -0.639263E-01  0.262E+00    3.75       1.0  T
   3    -24.0677548 -0.656371E-02  0.162E+00    4.19       1.0  T
   4    -24.0722981 -0.454334E-02  0.126E-01    3.98       1.0  T
   5    -24.0723622 -0.640520E-04  0.658E-02    4.00       1.0  T
   6    -24.0723657 -0.355383E-05  0.232E-02    3.99       1.2  T
   7    -24.0723696 -0.384059E-05  0.857E-03    4.00       3.2  T
   8    -24.0723702 -0.606833E-06  0.146E-03    4.00      19.0  T
   9    -24.0723702 -0.871049E-08  0.608E-04    4.00      45.6  T
  10    -24.0723702 -0.245738E-08  0.928E-05    4.00     299.0  T

   *** convergence criteria satisfied after 10 iterations ***

         #    Occupation            Energy/Eh            Energy/eV
      -------------------------------------------------------------
         1        2.0000           -0.7698330             -20.9482
       ...           ...                  ...                  ...
        14        2.0000           -0.5021558             -13.6644
        15        2.0000           -0.5012842             -13.6406
        16        2.0000           -0.4974143             -13.5353
        17        2.0000           -0.4954533             -13.4820
        18        2.0000           -0.4909823             -13.3603
        19        2.0000           -0.4530016             -12.3268
        20        2.0000           -0.4223614             -11.4930 (HOMO)
        21                         -0.2755388              -7.4978 (LUMO)
        22                         -0.2235771              -6.0838
        23                         -0.0000579              -0.0016
        24                          0.1324677               3.6046
        25                          0.1445076               3.9323
       ...                                ...                  ...
        34                          0.7100852              19.3224
      -------------------------------------------------------------
                  HL-Gap            0.1468226 Eh            3.9952 eV
             Fermi-level           -0.3489501 Eh           -9.4954 eV

 SCC (total)                   0 d,  0 h,  0 min,  0.035 sec
 SCC setup                      ...        0 min,  0.001 sec (  2.473%)
 Dispersion                     ...        0 min,  0.002 sec (  6.414%)
 classical contributions        ...        0 min,  0.004 sec ( 10.993%)
 integral evaluation            ...        0 min,  0.005 sec ( 14.593%)
 iterations                     ...        0 min,  0.019 sec ( 54.553%)
 molecular gradient             ...        0 min,  0.004 sec ( 10.568%)
 printout                       ...        0 min,  0.000 sec (  0.320%)

         :::::::::::::::::::::::::::::::::::::::::::::::::::::
         ::                     SUMMARY                     ::
         :::::::::::::::::::::::::::::::::::::::::::::::::::::
         :: total energy             -23.830979371146 Eh    ::
         :: gradient norm              0.000690619412 Eh/a0 ::
         :: HOMO-LUMO gap              3.995245638828 eV    ::
         ::.................................................::
         :: SCC energy               -24.072361847225 Eh    ::
         :: -> isotropic ES            0.067189154203 Eh    ::
         :: -> anisotropic ES          0.001384852185 Eh    ::
         :: -> anisotropic XC          0.001919540058 Eh    ::
         :: -> dispersion             -0.006809256143 Eh    ::
         :: repulsion energy           0.241382476079 Eh    ::
         :: add. restraining           0.000000000000 Eh    ::
         :: total charge               0.000000000000 e     ::
         :::::::::::::::::::::::::::::::::::::::::::::::::::::

           ------------------------------------------------- 
          |                Numerical Hessian                |
           ------------------------------------------------- 
step length          :   0.00500
SCC accuracy         :   0.30000
Hessian scale factor :   1.00000
frozen atoms in %    :   0.00000    0
RMS gradient         :   0.00069
estimated CPU  time      0.08 min
estimated wall time      0.01 min

writing file <hessian>.

 projected vibrational frequencies (cm⁻¹)
eigval :       -0.00    -0.00    -0.00     0.00     0.00     0.00
eigval :      -26.22    55.02    58.79   114.67   166.16   332.09
eigval :      373.70   508.63   538.46   591.37   677.79   851.82
eigval :      941.93   975.01  1001.70  1005.17  1013.28  1091.09
eigval :     1154.57  1362.93  1364.43  1436.84  1437.52  1438.46
eigval :     1439.31  1803.55  1860.65  3035.57  3035.86  3041.76
eigval :     3042.64  3071.54  3071.80
           -------------------------------------------------
          |                Property Printout                |
           -------------------------------------------------

    * Orbital Energies and Occupations

         #    Occupation            Energy/Eh            Energy/eV
      -------------------------------------------------------------
         1        2.0000           -0.7698338             -20.9482
       ...           ...                  ...                  ...
         8        2.0000           -0.6104779             -16.6119
         9        2.0000           -0.5785545             -15.7433
        10        2.0000           -0.5776441             -15.7185
        11        2.0000           -0.5640914             -15.3497
        12        2.0000           -0.5388815             -14.6637
        13        2.0000           -0.5088816             -13.8474
        14        2.0000           -0.5021560             -13.6644
        15        2.0000           -0.5012844             -13.6406
        16        2.0000           -0.4974144             -13.5353
        17        2.0000           -0.4954536             -13.4820
        18        2.0000           -0.4909822             -13.3603
        19        2.0000           -0.4530015             -12.3268
        20        2.0000           -0.4223614             -11.4930 (HOMO)
        21                         -0.2755396              -7.4978 (LUMO)
        22                         -0.2235779              -6.0839
        23                         -0.0000587              -0.0016
        24                          0.1324671               3.6046
        25                          0.1445075               3.9322
        26                          0.1470928               4.0026
        27                          0.1476904               4.0189
        28                          0.1749531               4.7607
        29                          0.1949289               5.3043
        30                          0.1964240               5.3450
        31                          0.2232295               6.0744
       ...                                ...                  ...
        34                          0.7100844              19.3224
      -------------------------------------------------------------
                  HL-Gap            0.1468218 Eh            3.9952 eV
             Fermi-level           -0.3489505 Eh           -9.4954 eV

     #   Z          covCN         q      C6AA      α(0)
     1   8 O        1.708    -0.278    18.614     5.825
     2   8 O        0.856    -0.333    20.390     6.054
     3   8 O        0.856    -0.333    20.390     6.054
     4   6 C        2.696     0.369    20.749     7.455
     5   6 C        2.696     0.369    20.749     7.455
     6   6 C        3.754    -0.151    23.475     6.909
     7   6 C        3.754    -0.151    23.475     6.909
     8   1 H        0.925     0.083     1.950     2.184
     9   1 H        0.925     0.086     1.920     2.167
    10   1 H        0.925     0.086     1.921     2.168
    11   1 H        0.925     0.086     1.921     2.167
    12   1 H        0.925     0.083     1.950     2.184
    13   1 H        0.925     0.086     1.920     2.167

 Mol. C6AA /au·bohr⁶  :       1628.055825
 Mol. C8AA /au·bohr⁸  :      35893.912395
 Mol. α(0) /au        :         59.697349


Wiberg/Mayer (AO) data.
largest (>0.10) Wiberg bond orders for each atom

 ---------------------------------------------------------------------------
     #   Z sym  total        # sym  WBO       # sym  WBO       # sym  WBO
 ---------------------------------------------------------------------------
     1   8 O    2.344 --     5 C    1.012     4 C    1.012     2 O    0.135
                             3 O    0.135
     2   8 O    2.118 --     4 C    1.853     1 O    0.135
     3   8 O    2.118 --     5 C    1.853     1 O    0.135
     4   6 C    3.909 --     2 O    1.853     1 O    1.012     6 C    0.993
     5   6 C    3.909 --     3 O    1.853     1 O    1.012     7 C    0.993
     6   6 C    3.989 --     4 C    0.993     8 H    0.981    10 H    0.960
                             9 H    0.959
     7   6 C    3.989 --     5 C    0.993    12 H    0.981    11 H    0.960
                            13 H    0.959
     8   1 H    0.992 --     6 C    0.981
     9   1 H    0.993 --     6 C    0.959
    10   1 H    0.993 --     6 C    0.960
    11   1 H    0.993 --     7 C    0.960
    12   1 H    0.992 --     7 C    0.981
    13   1 H    0.993 --     7 C    0.959
 ---------------------------------------------------------------------------
Molecule has the following symmetry elements: (C2) 2*(sigma) 
It seems to be the C2v point group

Topologies differ in total number of bonds
Writing topology from bond orders to xtbtopo.mol

molecular dipole:
                 x           y           z       tot (Debye)
 q only:       -0.000       1.801       0.000
   full:       -0.000       2.081       0.001       5.289
molecular quadrupole (traceless):
                xx          xy          yy          xz          yz          zz
 q only:        6.591       0.000      -5.433       0.018       0.001      -1.157
  q+dip:        5.635       0.000      -6.788       0.025       0.001       1.153
   full:        5.427       0.000      -7.742       0.024       0.001       2.316

           -------------------------------------------------
          |               Frequency Printout                |
           -------------------------------------------------
 projected vibrational frequencies (cm⁻¹)
eigval :       -0.00    -0.00    -0.00     0.00     0.00     0.00
eigval :      -26.22    55.02    58.79   114.67   166.16   332.09
eigval :      373.70   508.63   538.46   591.37   677.79   851.82
eigval :      941.93   975.01  1001.70  1005.17  1013.28  1091.09
eigval :     1154.57  1362.93  1364.43  1436.84  1437.52  1438.46
eigval :     1439.31  1803.55  1860.65  3035.57  3035.86  3041.76
eigval :     3042.64  3071.54  3071.80
 reduced masses (amu)
   1: 11.08   2: 13.45   3: 11.83   4: 13.41   5: 13.98   6: 11.36   7: 11.87   8:  2.85
   9:  1.91  10: 12.98  11: 12.74  12: 11.09  13: 11.03  14: 12.70  15:  8.97  16:  9.70
  17: 11.34  18: 12.40  19: 12.89  20:  9.36  21:  5.76  22:  6.00  23:  8.98  24:  8.55
  25:  9.61  26:  3.28  27:  3.43  28:  1.64  29:  1.59  30:  1.59  31:  1.64  32: 13.50
  33: 13.39  34:  1.95  35:  1.94  36:  1.41  37:  1.39  38:  1.83  39:  1.84
 IR intensities (km·mol⁻¹)
   1:  5.02   2:  1.42   3:  1.06   4:  4.34   5:  1.57   6:  2.82   7:  0.00   8:  0.00
   9:  0.55  10:  1.29  11:  1.45  12:  0.76  13:  0.15  14: 40.94  15:  0.00  16: 22.83
  17:  0.05  18: 17.38  19: 40.85  20:360.36  21:  0.00  22: 75.08  23: 26.48  24:676.09
  25:  3.25  26: 37.89  27: 47.82  28:  7.69  29:  0.01  30: 22.87  31: 28.03  32: 54.40
  33:744.02  34:  0.04  35:  5.61  36:  1.32  37:  2.04  38:  7.36  39:  4.61
 Raman intensities (Ä⁴*amu⁻¹)
   1:  0.00   2:  0.00   3:  0.00   4:  0.00   5:  0.00   6:  0.00   7:  0.00   8:  0.00
   9:  0.00  10:  0.00  11:  0.00  12:  0.00  13:  0.00  14:  0.00  15:  0.00  16:  0.00
  17:  0.00  18:  0.00  19:  0.00  20:  0.00  21:  0.00  22:  0.00  23:  0.00  24:  0.00
  25:  0.00  26:  0.00  27:  0.00  28:  0.00  29:  0.00  30:  0.00  31:  0.00  32:  0.00
  33:  0.00  34:  0.00  35:  0.00  36:  0.00  37:  0.00  38:  0.00  39:  0.00
 output can be read by thermo (or use thermo option).
 writing <g98.out> molden fake output.
 recommended (thermochemical) frequency scaling factor: 1.0
           -------------------------------------------------
          |             Thermodynamic Functions             |
           -------------------------------------------------

c2v symmetry found (for desy threshold:  0.10E+00) used in thermo

          ...................................................
          :                      SETUP                      :
          :.................................................:
          :  # frequencies                          32      :
          :  # imaginary freq.                       1      :
          :  linear?                             false      :
          :  only rotor calc.                    false      :
          :  symmetry                              c2v      :
          :  rotational number                       2      :
          :  scaling factor                  1.0000000      :
          :  rotor cutoff                   50.0000000 cm⁻¹ :
          :  imag. cutoff                  -20.0000000 cm⁻¹ :
          :.................................................:

    mode    ω/cm⁻¹     T·S(HO)/kcal·mol⁻¹    T·S(FR)/kcal·mol⁻¹   T·S(vib)
   ------------------------------------------------------------------------
       1     55.02    -1.37993 ( 59.45%)    -1.02783 ( 40.55%)    -1.23716
       2     58.79    -1.34087 ( 65.66%)    -1.00820 ( 34.34%)    -1.22662
       3    114.67    -0.95056 ( 96.51%)    -0.81046 (  3.49%)    -0.94568
       4    166.16    -0.73896 ( 99.19%)    -0.70066 (  0.81%)    -0.73865
   ------------------------------------------------------------------------

   temp. (K)  partition function   enthalpy   heat capacity  entropy
                                   cal/mol     cal/K/mol   cal/K/mol   J/K/mol
 298.15  VIB   156.                 2969.887     18.163     19.119
         ROT  0.112E+06              888.752      2.981     26.082
         INT  0.175E+08             3858.640     21.144     45.201
         TR   0.998E+27             1481.254      4.968     39.762
         TOT                        5339.8935    26.1117    84.9627   355.4839

       T/K    H(0)-H(T)+PV         H(T)/Eh          T*S/Eh         G(T)/Eh
   ------------------------------------------------------------------------
    298.15    0.850966E-02    0.103951E+00    0.403685E-01    0.635829E-01
   ------------------------------------------------------------------------

         :::::::::::::::::::::::::::::::::::::::::::::::::::::
         ::                  THERMODYNAMIC                  ::
         :::::::::::::::::::::::::::::::::::::::::::::::::::::
         :: total free energy         -23.767396450142 Eh   ::
         ::.................................................::
         :: total energy              -23.830979371209 Eh   ::
         :: zero point energy           0.095441776210 Eh   ::
         :: G(RRHO) w/o ZPVE           -0.031858855143 Eh   ::
         :: G(RRHO) contrib.            0.063582921067 Eh   ::
         :::::::::::::::::::::::::::::::::::::::::::::::::::::
imag cut-off (cm-1) :    5.00
 found            1  significant imaginary frequency
 writing imag mode distorted coords to xtbhess.xyz
 for further optimization.

           -------------------------------------------------
          | TOTAL ENERGY              -23.830979371209 Eh   |
          | TOTAL ENTHALPY            -23.727027933122 Eh   |
          | TOTAL FREE ENERGY         -23.767396450142 Eh   |
          | GRADIENT NORM               0.000690451467 Eh/α |
          | HOMO-LUMO GAP               3.995224029211 eV   |
           -------------------------------------------------

------------------------------------------------------------------------
 * finished run on 2026/06/07 at 13:50:41.027     
------------------------------------------------------------------------
 total:
 * wall-time:     0 d,  0 h,  0 min,  0.766 sec
 *  cpu-time:     0 d,  0 h,  0 min, 11.465 sec
 * ratio c/w:    14.974 speedup
 SCF:
 * wall-time:     0 d,  0 h,  0 min,  0.035 sec
 *  cpu-time:     0 d,  0 h,  0 min,  0.521 sec
 * ratio c/w:    14.877 speedup
 analytical hessian:
 * wall-time:     0 d,  0 h,  0 min,  0.706 sec
 *  cpu-time:     0 d,  0 h,  0 min, 10.575 sec
 * ratio c/w:    14.982 speedup

