13
 xtb: 6.7.1 (edcfbbe)
O           -0.00001700659804        0.56623069985776       -0.00005072963240
O            1.35494028737601       -1.26440099144130        0.13856038079177
O           -1.35495100207364       -1.26440834620023       -0.13878082917083
C            1.21478855247884       -0.08400275433010        0.02072728657966
C           -1.21481157942613       -0.08402345530105       -0.02076285333257
C            2.30846485215984        0.94582625661207       -0.08123705018079
C           -2.30850667165113        0.94574491627205        0.08161941882253
H            3.27441222313505        0.45025999812046       -0.00412372245455
H            2.20851266688990        1.60481016039386        0.83750596350213
H            2.21495650102827        1.54876346544762       -0.92362216265104
H           -2.21651004785016        1.54647287226010        0.92564631627005
H           -3.27443899006004        0.45026338551209        0.00183046782247
H           -2.20710267949129        1.60685423839333       -0.83532401036317
