      -----------------------------------------------------------      
     |                   =====================                   |     
     |                           x T B                           |     
     |                   =====================                   |     
     |                         S. Grimme                         |     
     |          Mulliken Center for Theoretical Chemistry        |     
     |                    University of Bonn                     |     
      -----------------------------------------------------------      

   * xtb version 6.7.1 (edcfbbe) compiled by 'conda@c0858423619e' on 2025-09-04

   xtb is free software: you can redistribute it and/or modify it under
   the terms of the GNU Lesser General Public License as published by
   the Free Software Foundation, either version 3 of the License, or
   (at your option) any later version.
   
   xtb is distributed in the hope that it will be useful,
   but WITHOUT ANY WARRANTY; without even the implied warranty of
   MERCHANTABILITY or FITNESS FOR A PARTICULAR PURPOSE.  See the
   GNU Lesser General Public License for more details.
   
   Cite this work as:
   * C. Bannwarth, E. Caldeweyher, S. Ehlert, A. Hansen, P. Pracht,
     J. Seibert, S. Spicher, S. Grimme, WIREs Comput. Mol. Sci., 2020, 11,
     e01493. DOI: 10.1002/wcms.1493
   
   for GFN2-xTB:
   * C. Bannwarth, S. Ehlert and S. Grimme., J. Chem. Theory Comput., 2019,
     15, 1652-1671. DOI: 10.1021/acs.jctc.8b01176
   for GFN1-xTB:
   * S. Grimme, C. Bannwarth, P. Shushkov, J. Chem. Theory Comput., 2017,
     13, 1989-2009. DOI: 10.1021/acs.jctc.7b00118
   for GFN0-xTB:
   * P. Pracht, E. Caldeweyher, S. Ehlert, S. Grimme, ChemRxiv, 2019, preprint.
     DOI: 10.26434/chemrxiv.8326202.v1
   for GFN-FF:
   * S. Spicher and S. Grimme, Angew. Chem. Int. Ed., 2020, 59, 15665-15673.
     DOI: 10.1002/anie.202004239
   
   for ALPB and GBSA implicit solvation:
   * S. Ehlert, M. Stahn, S. Spicher, S. Grimme, J. Chem. Theory Comput.,
     2021, 17, 4250-4261. DOI: 10.1021/acs.jctc.1c00471
   
   for ddCOSMO and CPCM-X implicit solvation:
   * M. Stahn, S. Ehlert, S. Grimme, J. Phys. Chem. A,
     2023, XX, XXXX-XXXX. DOI: 10.1021/acs.jpca.3c04382
   
   for DFT-D4:
   * E. Caldeweyher, C. Bannwarth and S. Grimme, J. Chem. Phys., 2017,
     147, 034112. DOI: 10.1063/1.4993215
   * E. Caldeweyher, S. Ehlert, A. Hansen, H. Neugebauer, S. Spicher,
     C. Bannwarth and S. Grimme, J. Chem. Phys., 2019, 150, 154122.
     DOI: 10.1063/1.5090222
   * E. Caldeweyher, J.-M. Mewes, S. Ehlert and S. Grimme, Phys. Chem. Chem. Phys.
     2020, 22, 8499-8512. DOI: 10.1039/D0CP00502A
   
   for sTDA-xTB:
   * S. Grimme and C. Bannwarth, J. Chem. Phys., 2016, 145, 054103.
     DOI: 10.1063/1.4959605
   
   in the mass-spec context:
   * V. Asgeirsson, C. Bauer and S. Grimme, Chem. Sci., 2017, 8, 4879.
     DOI: 10.1039/c7sc00601b
   * J. Koopman and S. Grimme, ACS Omega 2019, 4, 12, 15120-15133.
     DOI: 10.1021/acsomega.9b02011
   
   for metadynamics refer to:
   * S. Grimme, J. Chem. Theory Comput., 2019, 155, 2847-2862
     DOI: 10.1021/acs.jctc.9b00143
   
   for SPH calculations refer to:
   * S. Spicher and S. Grimme, J. Chem. Theory Comput., 2021, 17, 1701-1714
     DOI: 10.1021/acs.jctc.0c01306
   
   for ONIOM refer to:
   * C. Plett, A. Katbashev, S. Ehlert, S. Grimme, M. Bursch,
     Phys. Chem. Chem. Phys., 2023, 25, 17860-17868. DOI: 10.1039/D3CP02178E
   
   for DIPRO refer to:
   * J. Kohn, N. Gildemeister, S. Grimme, D. Fazzi, A. Hansen,
     J. Chem. Phys., 2023, just accepted.
   
   for PTB refer to:
   * S. Grimme, M. Mueller, A. Hansen, J. Chem. Phys., 2023, 158, 124111.
     DOI: 10.1063/5.0137838
   
   with help from (in alphabetical order)
   P. Atkinson, C. Bannwarth, F. Bohle, G. Brandenburg, E. Caldeweyher
   M. Checinski, S. Dohm, S. Ehlert, S. Ehrlich, I. Gerasimov, C. Hölzer
   A. Katbashev, J. Kohn, J. Koopman, C. Lavigne, S. Lehtola, F. März, M. Müller,
   F. Musil, H. Neugebauer, J. Pisarek, C. Plett, P. Pracht, F. Pultar,
   J. Seibert, P. Shushkov, S. Spicher, M. Stahn, M. Steiner, T. Strunk,
   J. Stückrath, T. Rose, and J. Unsleber
   
 * started run on 2026/06/07 at 14:02:21.759     
   ID    Z sym.   atoms
    1    8 O      1, 2
    2    7 N      3
    3    6 C      4-11
    4    1 H      12-20

           -------------------------------------------------
          |                Calculation Setup                |
           -------------------------------------------------

          program call               : xtb xtbopt.xyz --molden
          hostname                   : fedora
          coordinate file            : xtbopt.xyz
          omp threads                :                    16


           -------------------------------------------------
          |                 G F N 2 - x T B                 |
           -------------------------------------------------

        Reference                      10.1021/acs.jctc.8b01176
      * Hamiltonian:
        H0-scaling (s, p, d)           1.850000    2.230000    2.230000
        zeta-weighting                 0.500000
      * Dispersion:
        s8                             2.700000
        a1                             0.520000
        a2                             5.000000
        s9                             5.000000
      * Repulsion:
        kExp                           1.500000    1.000000
        rExp                           1.000000
      * Coulomb:
        alpha                          2.000000
        third order                    shell-resolved
        anisotropic                    true
        a3                             3.000000
        a5                             4.000000
        cn-shift                       1.200000
        cn-exp                         4.000000
        max-rad                        5.000000


          ...................................................
          :                      SETUP                      :
          :.................................................:
          :  # basis functions                  53          :
          :  # atomic orbitals                  53          :
          :  # shells                           31          :
          :  # electrons                        58          :
          :  max. iterations                   250          :
          :  Hamiltonian                  GFN2-xTB          :
          :  restarted?                      false          :
          :  GBSA solvation                  false          :
          :  PC potential                    false          :
          :  electronic temp.          300.0000000     K    :
          :  accuracy                    1.0000000          :
          :  -> integral cutoff          0.2500000E+02      :
          :  -> integral neglect         0.1000000E-07      :
          :  -> SCF convergence          0.1000000E-05 Eh   :
          :  -> wf. convergence          0.1000000E-03 e    :
          :  Broyden damping             0.4000000          :
          :  net charge                          0          :
          :  unpaired electrons                  0          :
          ...................................................

 iter      E             dE          RMSdq      gap      omega  full diag
   1    -33.1867103 -0.331867E+02  0.457E+00    3.38       0.0  T
   2    -33.2421005 -0.553902E-01  0.266E+00    3.75       1.0  T
   3    -33.2430939 -0.993381E-03  0.124E+00    3.76       1.0  T
   4    -33.2465947 -0.350086E-02  0.239E-01    3.72       1.0  T
   5    -33.2472924 -0.697604E-03  0.898E-02    3.75       1.0  T
   6    -33.2473017 -0.932042E-05  0.459E-02    3.75       1.0  T
   7    -33.2473221 -0.203926E-04  0.164E-02    3.75       1.4  T
   8    -33.2473230 -0.910009E-06  0.503E-03    3.75       4.4  T
   9    -33.2473230 -0.637921E-07  0.265E-03    3.75       8.4  T
  10    -33.2473231 -0.442880E-07  0.897E-04    3.75      24.9  T
  11    -33.2473231 -0.410097E-08  0.344E-04    3.75      65.0  T

   *** convergence criteria satisfied after 11 iterations ***

         #    Occupation            Energy/Eh            Energy/eV
      -------------------------------------------------------------
         1        2.0000           -0.7104335             -19.3319
       ...           ...                  ...                  ...
        23        2.0000           -0.4744412             -12.9102
        24        2.0000           -0.4606345             -12.5345
        25        2.0000           -0.4322651             -11.7625
        26        2.0000           -0.4294139             -11.6849
        27        2.0000           -0.4091585             -11.1338
        28        2.0000           -0.3937440             -10.7143
        29        2.0000           -0.3705894             -10.0843 (HOMO)
        30                         -0.2328105              -6.3351 (LUMO)
        31                         -0.2269689              -6.1761
        32                         -0.1863721              -5.0714
        33                         -0.0857125              -2.3324
        34                          0.0083757               0.2279
       ...                                ...                  ...
        53                          0.6784197              18.4607
      -------------------------------------------------------------
                  HL-Gap            0.1377790 Eh            3.7492 eV
             Fermi-level           -0.3017000 Eh           -8.2097 eV

 SCC (total)                   0 d,  0 h,  0 min,  0.180 sec
 SCC setup                      ...        0 min,  0.000 sec (  0.099%)
 Dispersion                     ...        0 min,  0.000 sec (  0.208%)
 classical contributions        ...        0 min,  0.000 sec (  0.056%)
 integral evaluation            ...        0 min,  0.002 sec (  1.214%)
 iterations                     ...        0 min,  0.166 sec ( 91.992%)
 molecular gradient             ...        0 min,  0.011 sec (  6.284%)
 printout                       ...        0 min,  0.000 sec (  0.128%)

         :::::::::::::::::::::::::::::::::::::::::::::::::::::
         ::                     SUMMARY                     ::
         :::::::::::::::::::::::::::::::::::::::::::::::::::::
         :: total energy             -32.783636481445 Eh    ::
         :: gradient norm              0.000243921191 Eh/a0 ::
         :: HOMO-LUMO gap              3.749156948029 eV    ::
         ::.................................................::
         :: SCC energy               -33.247367802780 Eh    ::
         :: -> isotropic ES            0.057750339225 Eh    ::
         :: -> anisotropic ES          0.004058815690 Eh    ::
         :: -> anisotropic XC          0.009575322291 Eh    ::
         :: -> dispersion             -0.016032167875 Eh    ::
         :: repulsion energy           0.463731321335 Eh    ::
         :: add. restraining           0.000000000000 Eh    ::
         :: total charge               0.000000000000 e     ::
         :::::::::::::::::::::::::::::::::::::::::::::::::::::

           -------------------------------------------------
          |                Property Printout                |
           -------------------------------------------------

    * Orbital Energies and Occupations

         #    Occupation            Energy/Eh            Energy/eV
      -------------------------------------------------------------
         1        2.0000           -0.7104335             -19.3319
       ...           ...                  ...                  ...
        17        2.0000           -0.4998321             -13.6011
        18        2.0000           -0.4920291             -13.3888
        19        2.0000           -0.4916527             -13.3786
        20        2.0000           -0.4838792             -13.1670
        21        2.0000           -0.4814531             -13.1010
        22        2.0000           -0.4746788             -12.9167
        23        2.0000           -0.4744412             -12.9102
        24        2.0000           -0.4606345             -12.5345
        25        2.0000           -0.4322651             -11.7625
        26        2.0000           -0.4294139             -11.6849
        27        2.0000           -0.4091585             -11.1338
        28        2.0000           -0.3937440             -10.7143
        29        2.0000           -0.3705894             -10.0843 (HOMO)
        30                         -0.2328105              -6.3351 (LUMO)
        31                         -0.2269689              -6.1761
        32                         -0.1863721              -5.0714
        33                         -0.0857125              -2.3324
        34                          0.0083757               0.2279
        35                          0.0699337               1.9030
        36                          0.0864590               2.3527
        37                          0.1280252               3.4837
        38                          0.1514878               4.1222
        39                          0.1536769               4.1818
        40                          0.1646047               4.4791
       ...                                ...                  ...
        53                          0.6784197              18.4607
      -------------------------------------------------------------
                  HL-Gap            0.1377790 Eh            3.7492 eV
             Fermi-level           -0.3017000 Eh           -8.2097 eV

     #   Z          covCN         q      C6AA      α(0)
     1   8 O        1.660    -0.393    20.712     6.144
     2   8 O        0.858    -0.415    21.988     6.287
     3   7 N        2.697    -0.163    24.528     7.356
     4   6 C        2.904     0.064    26.558     8.450
     5   6 C        2.920    -0.048    29.187     8.859
     6   6 C        2.926    -0.055    29.373     8.888
     7   6 C        2.920    -0.068    29.702     8.937
     8   6 C        2.919    -0.053    29.313     8.878
     9   6 C        2.845     0.140    24.946     8.186
    10   6 C        2.745     0.280    22.252     7.724
    11   6 C        3.758    -0.146    23.361     6.891
    12   1 H        0.926     0.080     1.982     2.201
    13   1 H        0.925     0.032     2.564     2.504
    14   1 H        0.860     0.174     1.248     1.750
    15   1 H        0.925     0.034     2.531     2.488
    16   1 H        0.926     0.053     2.284     2.363
    17   1 H        0.925     0.056     2.242     2.342
    18   1 H        0.925     0.073     2.056     2.242
    19   1 H        0.925     0.055     2.254     2.348
    20   1 H        0.805     0.300     0.722     1.334

 Mol. C6AA /au·bohr⁶  :       4614.804083
 Mol. C8AA /au·bohr⁸  :     108981.685447
 Mol. α(0) /au        :        106.172055


Wiberg/Mayer (AO) data.
largest (>0.10) Wiberg bond orders for each atom

 ---------------------------------------------------------------------------
     #   Z sym  total        # sym  WBO       # sym  WBO       # sym  WBO
 ---------------------------------------------------------------------------
     1   8 O    2.111 --     9 C    1.068    20 H    0.889
     2   8 O    2.029 --    10 C    1.713     3 N    0.168
     3   7 N    3.488 --    10 C    1.199     4 C    1.067    14 H    0.937
                             2 O    0.168
     4   6 C    3.961 --     5 C    1.374     6 C    1.361     3 N    1.067
     5   6 C    3.986 --     7 C    1.452     4 C    1.374    12 H    0.959
                             8 C    0.105
     6   6 C    3.989 --     8 C    1.469     4 C    1.361    13 H    0.967
                             7 C    0.102
     7   6 C    3.988 --     5 C    1.452     9 C    1.374    15 H    0.966
                             6 C    0.102
     8   6 C    3.988 --     6 C    1.469     9 C    1.357    16 H    0.968
                             5 C    0.105
     9   6 C    3.939 --     7 C    1.374     8 C    1.357     1 O    1.068
    10   6 C    3.947 --     2 O    1.713     3 N    1.199    11 C    0.978
    11   6 C    3.993 --    18 H    0.983    10 C    0.978    19 H    0.972
                            17 H    0.971
    12   1 H    0.994 --     5 C    0.959
    13   1 H    0.999 --     6 C    0.967
    14   1 H    0.969 --     3 N    0.937
    15   1 H    0.998 --     7 C    0.966
    16   1 H    0.997 --     8 C    0.968
    17   1 H    0.996 --    11 C    0.971
    18   1 H    0.994 --    11 C    0.983
    19   1 H    0.997 --    11 C    0.972
    20   1 H    0.910 --     1 O    0.889
 ---------------------------------------------------------------------------

Topologies differ in total number of bonds
Writing topology from bond orders to xtbtopo.mol

MOs/occ written to file <molden.input>


molecular dipole:
                 x           y           z       tot (Debye)
 q only:        0.026      -0.849      -0.002
   full:       -0.074      -1.001      -0.003       2.551
molecular quadrupole (traceless):
                xx          xy          yy          xz          yz          zz
 q only:        0.600      14.887       1.377       0.022       0.002      -1.976
  q+dip:        0.125      19.063       4.452       0.034       0.006      -4.577
   full:       -0.614      19.444       2.627       0.035       0.003      -2.012


           -------------------------------------------------
          | TOTAL ENERGY              -32.783636481445 Eh   |
          | GRADIENT NORM               0.000243921191 Eh/α |
          | HOMO-LUMO GAP               3.749156948029 eV   |
           -------------------------------------------------

------------------------------------------------------------------------
 * finished run on 2026/06/07 at 14:02:21.974     
------------------------------------------------------------------------
 total:
 * wall-time:     0 d,  0 h,  0 min,  0.215 sec
 *  cpu-time:     0 d,  0 h,  0 min,  3.159 sec
 * ratio c/w:    14.680 speedup
 SCF:
 * wall-time:     0 d,  0 h,  0 min,  0.181 sec
 *  cpu-time:     0 d,  0 h,  0 min,  2.656 sec
 * ratio c/w:    14.708 speedup

