15
 energy: -23.387797194849 gnorm: 0.000323367453 xtb: 6.7.1 (edcfbbe)
O           -2.75951913283753        0.02535871105913        0.00040548851274
N            2.77767565472777        0.00381973836086       -0.00249639537679
C            1.40656739251315       -0.00309455327983       -0.00067327801533
C            0.69865011240302       -1.20406182134750       -0.00035802924699
C            0.68643775334308        1.19320075649070       -0.00035453446625
C           -1.38978965868587       -0.01345061700772        0.00011230903058
C           -0.68327985506519       -1.20795383317044       -0.00002087576720
C           -0.69236872784911        1.18910423943217       -0.00000610455971
H            1.23852038670998       -2.14016177573083       -0.00049085839187
H            1.22076301736396        2.13228567866659       -0.00049159427257
H           -1.21699413191693       -2.14993242126059        0.00014716218922
H           -1.24883452447920        2.11276209732452        0.00017003801958
H            3.28881160809441       -0.85684154569836        0.00225296997503
H            3.27885675884618        0.87027385153524        0.00223428026972
H           -3.10199665316771       -0.87570850537394        0.00036942209985
