      -----------------------------------------------------------      
     |                   =====================                   |     
     |                           x T B                           |     
     |                   =====================                   |     
     |                         S. Grimme                         |     
     |          Mulliken Center for Theoretical Chemistry        |     
     |                    University of Bonn                     |     
      -----------------------------------------------------------      

   * xtb version 6.7.1 (edcfbbe) compiled by 'conda@c0858423619e' on 2025-09-04

   xtb is free software: you can redistribute it and/or modify it under
   the terms of the GNU Lesser General Public License as published by
   the Free Software Foundation, either version 3 of the License, or
   (at your option) any later version.
   
   xtb is distributed in the hope that it will be useful,
   but WITHOUT ANY WARRANTY; without even the implied warranty of
   MERCHANTABILITY or FITNESS FOR A PARTICULAR PURPOSE.  See the
   GNU Lesser General Public License for more details.
   
   Cite this work as:
   * C. Bannwarth, E. Caldeweyher, S. Ehlert, A. Hansen, P. Pracht,
     J. Seibert, S. Spicher, S. Grimme, WIREs Comput. Mol. Sci., 2020, 11,
     e01493. DOI: 10.1002/wcms.1493
   
   for GFN2-xTB:
   * C. Bannwarth, S. Ehlert and S. Grimme., J. Chem. Theory Comput., 2019,
     15, 1652-1671. DOI: 10.1021/acs.jctc.8b01176
   for GFN1-xTB:
   * S. Grimme, C. Bannwarth, P. Shushkov, J. Chem. Theory Comput., 2017,
     13, 1989-2009. DOI: 10.1021/acs.jctc.7b00118
   for GFN0-xTB:
   * P. Pracht, E. Caldeweyher, S. Ehlert, S. Grimme, ChemRxiv, 2019, preprint.
     DOI: 10.26434/chemrxiv.8326202.v1
   for GFN-FF:
   * S. Spicher and S. Grimme, Angew. Chem. Int. Ed., 2020, 59, 15665-15673.
     DOI: 10.1002/anie.202004239
   
   for ALPB and GBSA implicit solvation:
   * S. Ehlert, M. Stahn, S. Spicher, S. Grimme, J. Chem. Theory Comput.,
     2021, 17, 4250-4261. DOI: 10.1021/acs.jctc.1c00471
   
   for ddCOSMO and CPCM-X implicit solvation:
   * M. Stahn, S. Ehlert, S. Grimme, J. Phys. Chem. A,
     2023, XX, XXXX-XXXX. DOI: 10.1021/acs.jpca.3c04382
   
   for DFT-D4:
   * E. Caldeweyher, C. Bannwarth and S. Grimme, J. Chem. Phys., 2017,
     147, 034112. DOI: 10.1063/1.4993215
   * E. Caldeweyher, S. Ehlert, A. Hansen, H. Neugebauer, S. Spicher,
     C. Bannwarth and S. Grimme, J. Chem. Phys., 2019, 150, 154122.
     DOI: 10.1063/1.5090222
   * E. Caldeweyher, J.-M. Mewes, S. Ehlert and S. Grimme, Phys. Chem. Chem. Phys.
     2020, 22, 8499-8512. DOI: 10.1039/D0CP00502A
   
   for sTDA-xTB:
   * S. Grimme and C. Bannwarth, J. Chem. Phys., 2016, 145, 054103.
     DOI: 10.1063/1.4959605
   
   in the mass-spec context:
   * V. Asgeirsson, C. Bauer and S. Grimme, Chem. Sci., 2017, 8, 4879.
     DOI: 10.1039/c7sc00601b
   * J. Koopman and S. Grimme, ACS Omega 2019, 4, 12, 15120-15133.
     DOI: 10.1021/acsomega.9b02011
   
   for metadynamics refer to:
   * S. Grimme, J. Chem. Theory Comput., 2019, 155, 2847-2862
     DOI: 10.1021/acs.jctc.9b00143
   
   for SPH calculations refer to:
   * S. Spicher and S. Grimme, J. Chem. Theory Comput., 2021, 17, 1701-1714
     DOI: 10.1021/acs.jctc.0c01306
   
   for ONIOM refer to:
   * C. Plett, A. Katbashev, S. Ehlert, S. Grimme, M. Bursch,
     Phys. Chem. Chem. Phys., 2023, 25, 17860-17868. DOI: 10.1039/D3CP02178E
   
   for DIPRO refer to:
   * J. Kohn, N. Gildemeister, S. Grimme, D. Fazzi, A. Hansen,
     J. Chem. Phys., 2023, just accepted.
   
   for PTB refer to:
   * S. Grimme, M. Mueller, A. Hansen, J. Chem. Phys., 2023, 158, 124111.
     DOI: 10.1063/5.0137838
   
   with help from (in alphabetical order)
   P. Atkinson, C. Bannwarth, F. Bohle, G. Brandenburg, E. Caldeweyher
   M. Checinski, S. Dohm, S. Ehlert, S. Ehrlich, I. Gerasimov, C. Hölzer
   A. Katbashev, J. Kohn, J. Koopman, C. Lavigne, S. Lehtola, F. März, M. Müller,
   F. Musil, H. Neugebauer, J. Pisarek, C. Plett, P. Pracht, F. Pultar,
   J. Seibert, P. Shushkov, S. Spicher, M. Stahn, M. Steiner, T. Strunk,
   J. Stückrath, T. Rose, and J. Unsleber
   
 * started run on 2026/06/07 at 22:15:53.668     
   ID    Z sym.   atoms
    1    6 C      1, 2, 5, 6, 9-12, 14, 15
    2    8 O      3, 4, 7, 13
    3    7 N      8
    4    1 H      16-28

           -------------------------------------------------
          |                Calculation Setup                |
           -------------------------------------------------

          program call               : xtb xtbopt.xyz --molden
          hostname                   : fedora
          coordinate file            : xtbopt.xyz
          omp threads                :                    16


           -------------------------------------------------
          |                 G F N 2 - x T B                 |
           -------------------------------------------------

        Reference                      10.1021/acs.jctc.8b01176
      * Hamiltonian:
        H0-scaling (s, p, d)           1.850000    2.230000    2.230000
        zeta-weighting                 0.500000
      * Dispersion:
        s8                             2.700000
        a1                             0.520000
        a2                             5.000000
        s9                             5.000000
      * Repulsion:
        kExp                           1.500000    1.000000
        rExp                           1.000000
      * Coulomb:
        alpha                          2.000000
        third order                    shell-resolved
        anisotropic                    true
        a3                             3.000000
        a5                             4.000000
        cn-shift                       1.200000
        cn-exp                         4.000000
        max-rad                        5.000000


          ...................................................
          :                      SETUP                      :
          :.................................................:
          :  # basis functions                  73          :
          :  # atomic orbitals                  73          :
          :  # shells                           43          :
          :  # electrons                        82          :
          :  max. iterations                   250          :
          :  Hamiltonian                  GFN2-xTB          :
          :  restarted?                      false          :
          :  GBSA solvation                  false          :
          :  PC potential                    false          :
          :  electronic temp.          300.0000000     K    :
          :  accuracy                    1.0000000          :
          :  -> integral cutoff          0.2500000E+02      :
          :  -> integral neglect         0.1000000E-07      :
          :  -> SCF convergence          0.1000000E-05 Eh   :
          :  -> wf. convergence          0.1000000E-03 e    :
          :  Broyden damping             0.4000000          :
          :  net charge                          0          :
          :  unpaired electrons                  0          :
          ...................................................

 iter      E             dE          RMSdq      gap      omega  full diag
   1    -47.7493778 -0.477494E+02  0.441E+00    3.08       0.0  T
   2    -47.8125901 -0.632123E-01  0.254E+00    2.97       1.0  T
   3    -47.8130670 -0.476912E-03  0.116E+00    3.22       1.0  T
   4    -47.8200774 -0.701040E-02  0.170E-01    2.80       1.0  T
   5    -47.8202985 -0.221031E-03  0.798E-02    2.82       1.0  T
   6    -47.8203510 -0.524975E-04  0.398E-02    2.83       1.0  T
   7    -47.8203671 -0.161577E-04  0.142E-02    2.83       1.3  T
   8    -47.8203683 -0.122307E-05  0.484E-03    2.83       3.9  T
   9    -47.8203685 -0.129833E-06  0.212E-03    2.83       8.9  T
  10    -47.8203685 -0.288709E-07  0.741E-04    2.83      25.5  T
  11    -47.8203685 -0.183725E-08  0.266E-04    2.83      71.1  T

   *** convergence criteria satisfied after 11 iterations ***

         #    Occupation            Energy/Eh            Energy/eV
      -------------------------------------------------------------
         1        2.0000           -0.7617089             -20.7272
       ...           ...                  ...                  ...
        35        2.0000           -0.4493185             -12.2266
        36        2.0000           -0.4422021             -12.0329
        37        2.0000           -0.4317770             -11.7492
        38        2.0000           -0.4168853             -11.3440
        39        2.0000           -0.4124889             -11.2244
        40        2.0000           -0.3981309             -10.8337
        41        2.0000           -0.3511073              -9.5541 (HOMO)
        42                         -0.2471833              -6.7262 (LUMO)
        43                         -0.2163059              -5.8860
        44                         -0.1966575              -5.3513
        45                         -0.0788823              -2.1465
        46                         -0.0336719              -0.9163
       ...                                ...                  ...
        73                          0.6774111              18.4333
      -------------------------------------------------------------
                  HL-Gap            0.1039239 Eh            2.8279 eV
             Fermi-level           -0.2991453 Eh           -8.1402 eV

 SCC (total)                   0 d,  0 h,  0 min,  1.164 sec
 SCC setup                      ...        0 min,  0.000 sec (  0.019%)
 Dispersion                     ...        0 min,  0.001 sec (  0.047%)
 classical contributions        ...        0 min,  0.000 sec (  0.013%)
 integral evaluation            ...        0 min,  0.006 sec (  0.481%)
 iterations                     ...        0 min,  1.148 sec ( 98.626%)
 molecular gradient             ...        0 min,  0.009 sec (  0.796%)
 printout                       ...        0 min,  0.000 sec (  0.016%)

         :::::::::::::::::::::::::::::::::::::::::::::::::::::
         ::                     SUMMARY                     ::
         :::::::::::::::::::::::::::::::::::::::::::::::::::::
         :: total energy             -47.254127478566 Eh    ::
         :: gradient norm              0.000410021351 Eh/a0 ::
         :: HOMO-LUMO gap              2.827914159743 eV    ::
         ::.................................................::
         :: SCC energy               -47.820420810085 Eh    ::
         :: -> isotropic ES            0.102653090961 Eh    ::
         :: -> anisotropic ES          0.000167448687 Eh    ::
         :: -> anisotropic XC          0.009133773370 Eh    ::
         :: -> dispersion             -0.024579476988 Eh    ::
         :: repulsion energy           0.566293331519 Eh    ::
         :: add. restraining           0.000000000000 Eh    ::
         :: total charge               0.000000000000 e     ::
         :::::::::::::::::::::::::::::::::::::::::::::::::::::

           -------------------------------------------------
          |                Property Printout                |
           -------------------------------------------------

    * Orbital Energies and Occupations

         #    Occupation            Energy/Eh            Energy/eV
      -------------------------------------------------------------
         1        2.0000           -0.7617089             -20.7272
       ...           ...                  ...                  ...
        29        2.0000           -0.4836390             -13.1605
        30        2.0000           -0.4809192             -13.0865
        31        2.0000           -0.4773916             -12.9905
        32        2.0000           -0.4721117             -12.8468
        33        2.0000           -0.4700585             -12.7909
        34        2.0000           -0.4647685             -12.6470
        35        2.0000           -0.4493185             -12.2266
        36        2.0000           -0.4422021             -12.0329
        37        2.0000           -0.4317770             -11.7492
        38        2.0000           -0.4168853             -11.3440
        39        2.0000           -0.4124889             -11.2244
        40        2.0000           -0.3981309             -10.8337
        41        2.0000           -0.3511073              -9.5541 (HOMO)
        42                         -0.2471833              -6.7262 (LUMO)
        43                         -0.2163059              -5.8860
        44                         -0.1966575              -5.3513
        45                         -0.0788823              -2.1465
        46                         -0.0336719              -0.9163
        47                          0.0079111               0.2153
        48                          0.0719158               1.9569
        49                          0.0766313               2.0852
        50                          0.0948911               2.5821
        51                          0.1255610               3.4167
        52                          0.1324452               3.6040
       ...                                ...                  ...
        73                          0.6774111              18.4333
      -------------------------------------------------------------
                  HL-Gap            0.1039239 Eh            2.8279 eV
             Fermi-level           -0.2991453 Eh           -8.1402 eV

     #   Z          covCN         q      C6AA      α(0)
     1   6 C        3.754    -0.149    23.430     6.902
     2   6 C        2.702     0.374    20.662     7.440
     3   8 O        0.856    -0.420    22.082     6.300
     4   8 O        1.703    -0.304    19.063     5.895
     5   6 C        3.598     0.344    16.010     5.790
     6   6 C        3.753    -0.138    23.216     6.871
     7   8 O        1.657    -0.452    21.891     6.316
     8   7 N        2.694    -0.221    25.833     7.549
     9   6 C        2.901     0.071    26.408     8.426
    10   6 C        2.922    -0.056    29.381     8.889
    11   6 C        2.919    -0.070    29.753     8.945
    12   6 C        2.845     0.133    25.079     8.207
    13   8 O        1.659    -0.400    20.845     6.163
    14   6 C        2.919    -0.053    29.304     8.877
    15   6 C        2.929    -0.058    29.438     8.898
    16   1 H        0.925     0.081     1.971     2.195
    17   1 H        0.925     0.085     1.926     2.170
    18   1 H        0.925     0.081     1.966     2.193
    19   1 H        0.925     0.063     2.165     2.301
    20   1 H        0.925     0.059     2.210     2.325
    21   1 H        0.925     0.068     2.107     2.270
    22   1 H        0.804     0.332     0.633     1.250
    23   1 H        0.860     0.178     1.224     1.733
    24   1 H        0.926     0.044     2.394     2.420
    25   1 H        0.925     0.027     2.631     2.536
    26   1 H        0.805     0.296     0.734     1.346
    27   1 H        0.926     0.051     2.312     2.378
    28   1 H        0.926     0.034     2.536     2.490

 Mol. C6AA /au·bohr⁶  :       8253.734759
 Mol. C8AA /au·bohr⁸  :     189726.423792
 Mol. α(0) /au        :        139.074988


Wiberg/Mayer (AO) data.
largest (>0.10) Wiberg bond orders for each atom

 ---------------------------------------------------------------------------
     #   Z sym  total        # sym  WBO       # sym  WBO       # sym  WBO
 ---------------------------------------------------------------------------
     1   6 C    3.989 --     2 C    0.991    16 H    0.981    18 H    0.966
                            17 H    0.957
     2   6 C    3.909 --     3 O    1.734     4 O    1.136     1 C    0.991
     3   8 O    2.035 --     2 C    1.734     4 O    0.168
     4   8 O    2.289 --     2 C    1.136     5 C    0.872     3 O    0.168
     5   6 C    3.910 --     7 O    1.012     8 N    1.003     6 C    0.971
                             4 O    0.872
     6   6 C    3.989 --    20 H    0.984    19 H    0.981    21 H    0.976
                             5 C    0.971
     7   8 O    1.993 --     5 C    1.012    22 H    0.849
     8   7 N    3.260 --     9 C    1.094     5 C    1.003    23 H    0.932
     9   6 C    3.963 --    10 C    1.372    15 C    1.346     8 N    1.094
    10   6 C    3.988 --    11 C    1.441     9 C    1.372    24 H    0.964
                            14 C    0.104
    11   6 C    3.987 --    10 C    1.441    12 C    1.383    25 H    0.967
                            15 C    0.104
    12   6 C    3.937 --    11 C    1.383    14 C    1.354    13 O    1.057
    13   8 O    2.097 --    12 C    1.057    26 H    0.892
    14   6 C    3.989 --    15 C    1.477    12 C    1.354    27 H    0.968
                            10 C    0.104
    15   6 C    3.987 --    14 C    1.477     9 C    1.346    28 H    0.968
                            11 C    0.104
    16   1 H    0.993 --     1 C    0.981
    17   1 H    0.993 --     1 C    0.957
    18   1 H    0.993 --     1 C    0.966
    19   1 H    0.996 --     6 C    0.981
    20   1 H    0.996 --     6 C    0.984
    21   1 H    0.995 --     6 C    0.976
    22   1 H    0.890 --     7 O    0.849
    23   1 H    0.968 --     8 N    0.932
    24   1 H    0.998 --    10 C    0.964
    25   1 H    0.999 --    11 C    0.967
    26   1 H    0.913 --    13 O    0.892
    27   1 H    0.997 --    14 C    0.968
    28   1 H    0.999 --    15 C    0.968
 ---------------------------------------------------------------------------

Topologies differ in total number of bonds
Writing topology from bond orders to xtbtopo.mol

MOs/occ written to file <molden.input>


molecular dipole:
                 x           y           z       tot (Debye)
 q only:       -0.566       0.009       0.556
   full:       -0.774      -0.223       0.491       2.397
molecular quadrupole (traceless):
                xx          xy          yy          xz          yz          zz
 q only:       27.102     -14.463     -14.641      -9.378       3.052     -12.461
  q+dip:       35.597     -16.123     -19.896      -7.917       3.182     -15.701
   full:       35.126     -15.736     -21.627      -7.499       3.054     -13.499


           -------------------------------------------------
          | TOTAL ENERGY              -47.254127478566 Eh   |
          | GRADIENT NORM               0.000410021351 Eh/α |
          | HOMO-LUMO GAP               2.827914159743 eV   |
           -------------------------------------------------

------------------------------------------------------------------------
 * finished run on 2026/06/07 at 22:15:54.878     
------------------------------------------------------------------------
 total:
 * wall-time:     0 d,  0 h,  0 min,  1.210 sec
 *  cpu-time:     0 d,  0 h,  0 min, 14.086 sec
 * ratio c/w:    11.637 speedup
 SCF:
 * wall-time:     0 d,  0 h,  0 min,  1.164 sec
 *  cpu-time:     0 d,  0 h,  0 min, 13.629 sec
 * ratio c/w:    11.711 speedup

