28
 energy: -47.272711124979 gnorm: 0.000886785762 xtb: 6.7.1 (edcfbbe)
C          -10.72128389514684        1.44514037690311       -1.28172679830004
C           -9.29865102756361        1.00970629755702       -1.42289665194251
O           -8.93746680896355       -0.12518488910121       -1.65665178000375
O           -8.45823563792025        2.03314806831508       -1.26596860744135
C           -7.02020429436867        1.81925002703100       -1.34972562949207
C           -6.57457000118853        1.03680478013311       -0.11074443103834
O           -6.70660146393077        1.19049570083696       -2.54726481337913
N           -6.51356561979231        3.15888371049442       -1.32721710294579
C           -5.21876098073405        3.52500838328542       -1.68828834354623
C           -4.18204494890126        2.62110124809012       -1.89563900612937
C           -2.90068180410261        3.06501759820987       -2.17261611996913
C           -2.62283815914769        4.42134420770090       -2.25124248355210
O           -1.37076891782419        4.90429013543271       -2.51601735903999
C           -3.65685548406397        5.33300338239886       -2.06115912149480
C           -4.93191629093349        4.88926220806168       -1.78627386513257
H          -11.36635725832433        0.57323677868711       -1.25306844618901
H          -10.98300706034080        2.06947954416134       -2.13277541673522
H          -10.83094579645033        2.04143249793337       -0.38074021345935
H           -7.01531515697440        0.04320200195627       -0.11935170974329
H           -6.90150792958620        1.57596932601427        0.77292196450265
H           -5.49345434349632        0.95885930123055       -0.10051548955175
H           -7.05159557413861        0.28056290147483       -2.54128753177166
H           -7.21585428202312        3.83864725216384       -1.58333767320871
H           -4.37011438170243        1.56105629485868       -1.87420712286773
H           -2.11483966475807        2.34075512377968       -2.33192756696650
H           -0.74743749913837        4.17146839926775       -2.62593891312736
H           -3.43943740311680        6.38689232112299       -2.13381596294543
H           -5.72336731536899        5.60830502200074       -1.64060180453039
