      -----------------------------------------------------------      
     |                   =====================                   |     
     |                           x T B                           |     
     |                   =====================                   |     
     |                         S. Grimme                         |     
     |          Mulliken Center for Theoretical Chemistry        |     
     |                    University of Bonn                     |     
      -----------------------------------------------------------      

   * xtb version 6.7.1 (edcfbbe) compiled by 'conda@c0858423619e' on 2025-09-04

   xtb is free software: you can redistribute it and/or modify it under
   the terms of the GNU Lesser General Public License as published by
   the Free Software Foundation, either version 3 of the License, or
   (at your option) any later version.
   
   xtb is distributed in the hope that it will be useful,
   but WITHOUT ANY WARRANTY; without even the implied warranty of
   MERCHANTABILITY or FITNESS FOR A PARTICULAR PURPOSE.  See the
   GNU Lesser General Public License for more details.
   
   Cite this work as:
   * C. Bannwarth, E. Caldeweyher, S. Ehlert, A. Hansen, P. Pracht,
     J. Seibert, S. Spicher, S. Grimme, WIREs Comput. Mol. Sci., 2020, 11,
     e01493. DOI: 10.1002/wcms.1493
   
   for GFN2-xTB:
   * C. Bannwarth, S. Ehlert and S. Grimme., J. Chem. Theory Comput., 2019,
     15, 1652-1671. DOI: 10.1021/acs.jctc.8b01176
   for GFN1-xTB:
   * S. Grimme, C. Bannwarth, P. Shushkov, J. Chem. Theory Comput., 2017,
     13, 1989-2009. DOI: 10.1021/acs.jctc.7b00118
   for GFN0-xTB:
   * P. Pracht, E. Caldeweyher, S. Ehlert, S. Grimme, ChemRxiv, 2019, preprint.
     DOI: 10.26434/chemrxiv.8326202.v1
   for GFN-FF:
   * S. Spicher and S. Grimme, Angew. Chem. Int. Ed., 2020, 59, 15665-15673.
     DOI: 10.1002/anie.202004239
   
   for ALPB and GBSA implicit solvation:
   * S. Ehlert, M. Stahn, S. Spicher, S. Grimme, J. Chem. Theory Comput.,
     2021, 17, 4250-4261. DOI: 10.1021/acs.jctc.1c00471
   
   for ddCOSMO and CPCM-X implicit solvation:
   * M. Stahn, S. Ehlert, S. Grimme, J. Phys. Chem. A,
     2023, XX, XXXX-XXXX. DOI: 10.1021/acs.jpca.3c04382
   
   for DFT-D4:
   * E. Caldeweyher, C. Bannwarth and S. Grimme, J. Chem. Phys., 2017,
     147, 034112. DOI: 10.1063/1.4993215
   * E. Caldeweyher, S. Ehlert, A. Hansen, H. Neugebauer, S. Spicher,
     C. Bannwarth and S. Grimme, J. Chem. Phys., 2019, 150, 154122.
     DOI: 10.1063/1.5090222
   * E. Caldeweyher, J.-M. Mewes, S. Ehlert and S. Grimme, Phys. Chem. Chem. Phys.
     2020, 22, 8499-8512. DOI: 10.1039/D0CP00502A
   
   for sTDA-xTB:
   * S. Grimme and C. Bannwarth, J. Chem. Phys., 2016, 145, 054103.
     DOI: 10.1063/1.4959605
   
   in the mass-spec context:
   * V. Asgeirsson, C. Bauer and S. Grimme, Chem. Sci., 2017, 8, 4879.
     DOI: 10.1039/c7sc00601b
   * J. Koopman and S. Grimme, ACS Omega 2019, 4, 12, 15120-15133.
     DOI: 10.1021/acsomega.9b02011
   
   for metadynamics refer to:
   * S. Grimme, J. Chem. Theory Comput., 2019, 155, 2847-2862
     DOI: 10.1021/acs.jctc.9b00143
   
   for SPH calculations refer to:
   * S. Spicher and S. Grimme, J. Chem. Theory Comput., 2021, 17, 1701-1714
     DOI: 10.1021/acs.jctc.0c01306
   
   for ONIOM refer to:
   * C. Plett, A. Katbashev, S. Ehlert, S. Grimme, M. Bursch,
     Phys. Chem. Chem. Phys., 2023, 25, 17860-17868. DOI: 10.1039/D3CP02178E
   
   for DIPRO refer to:
   * J. Kohn, N. Gildemeister, S. Grimme, D. Fazzi, A. Hansen,
     J. Chem. Phys., 2023, just accepted.
   
   for PTB refer to:
   * S. Grimme, M. Mueller, A. Hansen, J. Chem. Phys., 2023, 158, 124111.
     DOI: 10.1063/5.0137838
   
   with help from (in alphabetical order)
   P. Atkinson, C. Bannwarth, F. Bohle, G. Brandenburg, E. Caldeweyher
   M. Checinski, S. Dohm, S. Ehlert, S. Ehrlich, I. Gerasimov, C. Hölzer
   A. Katbashev, J. Kohn, J. Koopman, C. Lavigne, S. Lehtola, F. März, M. Müller,
   F. Musil, H. Neugebauer, J. Pisarek, C. Plett, P. Pracht, F. Pultar,
   J. Seibert, P. Shushkov, S. Spicher, M. Stahn, M. Steiner, T. Strunk,
   J. Stückrath, T. Rose, and J. Unsleber
   
 * started run on 2026/06/07 at 14:02:12.555     
   ID    Z sym.   atoms
    1    8 O      1
    2    7 N      2
    3    6 C      3-8
    4    1 H      9-15

           -------------------------------------------------
          |                Calculation Setup                |
           -------------------------------------------------

          program call               : xtb 4-aminophenol.xyz --opt --alpb water
          hostname                   : fedora
          coordinate file            : 4-aminophenol.xyz
          omp threads                :                    16


           -------------------------------------------------
          |                 G F N 2 - x T B                 |
           -------------------------------------------------

        Reference                      10.1021/acs.jctc.8b01176
      * Hamiltonian:
        H0-scaling (s, p, d)           1.850000    2.230000    2.230000
        zeta-weighting                 0.500000
      * Dispersion:
        s8                             2.700000
        a1                             0.520000
        a2                             5.000000
        s9                             5.000000
      * Repulsion:
        kExp                           1.500000    1.000000
        rExp                           1.000000
      * Coulomb:
        alpha                          2.000000
        third order                    shell-resolved
        anisotropic                    true
        a3                             3.000000
        a5                             4.000000
        cn-shift                       1.200000
        cn-exp                         4.000000
        max-rad                        5.000000

      * Solvation model:               ALPB
        Solvent                        water
        Parameter file                 internal GFN2-xTB/ALPB
        Dielectric constant                8.0200E+01
        Reference state                gsolv [1 M gas/solution]
        Free energy shift                  1.0808E-03 Eh       6.7819E-01 kcal/mol
        Temperature                        2.9815E+02 K
        Density                            1.0000E+00 kg/L
        Solvent mass                       1.8000E+01 g/mol
        Interaction kernel             P16
        Born radius scaling (c1)           1.4744E+00
        Born radii integrator          GBOBC
        Born offset                        0.0000E+00 a0       0.0000E+00 AA
        H-bond correction              true
        Ion screening                  false
        Surface tension                    1.0000E-05 Eh       1.5569E+01 dyn/cm
        Grid points                               230 per atom

          ...................................................
          :                      SETUP                      :
          :.................................................:
          :  # basis functions                  39          :
          :  # atomic orbitals                  39          :
          :  # shells                           23          :
          :  # electrons                        42          :
          :  max. iterations                   250          :
          :  Hamiltonian                  GFN2-xTB          :
          :  restarted?                      false          :
          :  GBSA solvation                   true          :
          :  PC potential                    false          :
          :  electronic temp.          300.0000000     K    :
          :  accuracy                    1.0000000          :
          :  -> integral cutoff          0.2500000E+02      :
          :  -> integral neglect         0.1000000E-07      :
          :  -> SCF convergence          0.1000000E-05 Eh   :
          :  -> wf. convergence          0.1000000E-03 e    :
          :  Broyden damping             0.4000000          :
          :  net charge                          0          :
          :  unpaired electrons                  0          :
          ...................................................

 iter      E             dE          RMSdq      gap      omega  full diag
   1    -23.7254400 -0.237254E+02  0.444E+00    2.74       0.0  T
   2    -23.7375907 -0.121507E-01  0.269E+00    3.33       1.0  T
   3    -23.7363844  0.120622E-02  0.586E-01    3.24       1.0  T
   4    -23.7386298 -0.224534E-02  0.191E-01    3.31       1.0  T
   5    -23.7389220 -0.292197E-03  0.746E-02    3.32       1.0  T
   6    -23.7389284 -0.644607E-05  0.331E-02    3.31       1.0  T
   7    -23.7389301 -0.164878E-05  0.162E-02    3.32       1.6  T
   8    -23.7389311 -0.104528E-05  0.465E-03    3.32       5.5  T
   9    -23.7389311 -0.240183E-07  0.247E-03    3.32      10.5  T
  10    -23.7389312 -0.267245E-07  0.825E-04    3.32      31.3  T
  11    -23.7389312 -0.172265E-08  0.321E-04    3.32      80.3  T

   *** convergence criteria satisfied after 11 iterations ***

         #    Occupation            Energy/Eh            Energy/eV
      -------------------------------------------------------------
         1        2.0000           -0.6995712             -19.0363
       ...           ...                  ...                  ...
        15        2.0000           -0.4671153             -12.7109
        16        2.0000           -0.4578204             -12.4579
        17        2.0000           -0.4426929             -12.0463
        18        2.0000           -0.4160470             -11.3212
        19        2.0000           -0.4062779             -11.0554
        20        2.0000           -0.3934638             -10.7067
        21        2.0000           -0.3390298              -9.2255 (HOMO)
        22                         -0.2171927              -5.9101 (LUMO)
        23                         -0.1890949              -5.1455
        24                         -0.0772051              -2.1009
        25                          0.0102007               0.2776
        26                          0.0840698               2.2877
       ...                                ...                  ...
        39                          0.6513182              17.7233
      -------------------------------------------------------------
                  HL-Gap            0.1218370 Eh            3.3154 eV
             Fermi-level           -0.2781112 Eh           -7.5678 eV

 SCC (total)                   0 d,  0 h,  0 min,  0.104 sec
 SCC setup                      ...        0 min,  0.002 sec (  2.088%)
 Dispersion                     ...        0 min,  0.000 sec (  0.404%)
 classical contributions        ...        0 min,  0.001 sec (  0.869%)
 integral evaluation            ...        0 min,  0.001 sec (  1.274%)
 iterations                     ...        0 min,  0.089 sec ( 85.884%)
 molecular gradient             ...        0 min,  0.010 sec (  9.183%)
 printout                       ...        0 min,  0.000 sec (  0.248%)

         :::::::::::::::::::::::::::::::::::::::::::::::::::::
         ::                     SUMMARY                     ::
         :::::::::::::::::::::::::::::::::::::::::::::::::::::
         :: total energy             -23.396629010386 Eh    ::
         :: total w/o Gsasa/hb       -23.388451690371 Eh    ::
         :: gradient norm              0.051805237405 Eh/a0 ::
         :: HOMO-LUMO gap              3.315354520826 eV    ::
         ::.................................................::
         :: SCC energy               -23.738921163673 Eh    ::
         :: -> isotropic ES            0.041709728044 Eh    ::
         :: -> anisotropic ES          0.005651126998 Eh    ::
         :: -> anisotropic XC          0.009447014950 Eh    ::
         :: -> dispersion             -0.011025621810 Eh    ::
         :: -> Gsolv                  -0.014208679511 Eh    ::
         ::    -> Gelec               -0.006031359497 Eh    ::
         ::    -> Gsasa               -0.000805181436 Eh    ::
         ::    -> Ghb                 -0.008452898276 Eh    ::
         ::    -> Gshift               0.001080759698 Eh    ::
         :: repulsion energy           0.342292153287 Eh    ::
         :: add. restraining           0.000000000000 Eh    ::
         :: total charge               0.000000000000 e     ::
         :::::::::::::::::::::::::::::::::::::::::::::::::::::

      ----------------------------------------------------------- 
     |                   =====================                   |
     |                        A N C O P T                        |
     |                   =====================                   |
     |               Approximate Normal Coordinate               |
     |                Rational Function Optimizer                |
      ----------------------------------------------------------- 
      ----------------------------------------------------------- 
     |                   =====================                   |
     |                        A N C O P T                        |
     |                   =====================                   |
     |               Approximate Normal Coordinate               |
     |                Rational Function Optimizer                |
      ----------------------------------------------------------- 

          ...................................................
          :                      SETUP                      :
          :.................................................:
          :   optimization level            normal          :
          :   max. optcycles                   200          :
          :   ANC micro-cycles                  20          :
          :   degrees of freedom                39          :
          :.................................................:
          :   RF solver                   davidson          :
          :   write xtbopt.log                true          :
          :   linear?                        false          :
          :   energy convergence         0.5000000E-05 Eh   :
          :   grad. convergence          0.1000000E-02 Eh/α :
          :   maxmium RF displ.          1.0000000          :
          :   Hlow (freq-cutoff)         0.1000000E-01      :
          :   Hmax (freq-cutoff)         5.0000000          :
          :   S6 in model hess.         20.0000000          :
          ...................................................

generating ANC from exact Hessian ...
Using Lindh-Hessian (1995)
 Shifting diagonal of input Hessian by    5.6034751125547998E-003
 Lowest  eigenvalues of input Hessian
    0.000000    0.000000    0.000000    0.000000    0.000000    0.000000
    0.010000    0.018510    0.020869    0.022785    0.027977    0.028022
    0.044873    0.046107    0.062869    0.073138    0.082597    0.093184
 Highest eigenvalues
    1.538995    1.646626    1.863589    1.888791    2.013056    2.090239


........................................................................
.............................. CYCLE    1 ..............................
........................................................................

 iter      E             dE          RMSdq      gap      omega  full diag
   1    -23.7389312 -0.237389E+02  0.149E-04    3.32       0.0  T
   2    -23.7389312 -0.688694E-10  0.896E-05    3.32     288.3  T
   3    -23.7389312 -0.174474E-10  0.593E-05    3.32     435.5  T
     SCC iter.                  ...        0 min,  0.006 sec
     gradient                   ...        0 min,  0.011 sec
 * total energy  :   -23.3966290 Eh     change       -0.4881784E-09 Eh
   gradient norm :     0.0518009 Eh/α   predicted     0.0000000E+00 (-100.00%)
   displ. norm   :     0.1277920 α      lambda       -0.3570303E-02
   maximum displ.:     0.0733853 α      in ANC's #20, #10, #7, ...

........................................................................
.............................. CYCLE    2 ..............................
........................................................................

 iter      E             dE          RMSdq      gap      omega  full diag
   1    -23.7576781 -0.237577E+02  0.186E-01    3.35       0.0  T
   2    -23.7578235 -0.145391E-03  0.107E-01    3.39       1.0  T
   3    -23.7578551 -0.315313E-04  0.622E-02    3.39       1.0  T
   4    -23.7578587 -0.363046E-05  0.189E-02    3.39       1.4  T
   5    -23.7578596 -0.906711E-06  0.452E-03    3.39       5.7  T
   6    -23.7578597 -0.130947E-06  0.248E-03    3.39      10.4  T
   7    -23.7578597 -0.183260E-07  0.143E-03    3.39      18.1  T
   8    -23.7578597 -0.540326E-08  0.293E-04    3.39      88.1  T
   9    -23.7578597 -0.280426E-09  0.165E-04    3.39     156.9  T
     SCC iter.                  ...        0 min,  0.063 sec
     gradient                   ...        0 min,  0.005 sec
 * total energy  :   -23.3990329 Eh     change       -0.2403916E-02 Eh
   gradient norm :     0.0239870 Eh/α   predicted    -0.1814304E-02 ( -24.53%)
   displ. norm   :     0.0751119 α      lambda       -0.7892633E-03
   maximum displ.:     0.0508773 α      in ANC's #7, #20, #5, ...

........................................................................
.............................. CYCLE    3 ..............................
........................................................................

 iter      E             dE          RMSdq      gap      omega  full diag
   1    -23.7639808 -0.237640E+02  0.126E-01    3.40       0.0  T
   2    -23.7640547 -0.739557E-04  0.671E-02    3.43       1.0  T
   3    -23.7640701 -0.153921E-04  0.385E-02    3.43       1.0  T
   4    -23.7640718 -0.167851E-05  0.132E-02    3.43       2.0  T
   5    -23.7640721 -0.314051E-06  0.295E-03    3.43       8.8  T
   6    -23.7640721 -0.486750E-07  0.168E-03    3.43      15.4  T
   7    -23.7640722 -0.888408E-08  0.989E-04    3.43      26.1  T
   8    -23.7640722 -0.271804E-08  0.188E-04    3.43     137.3  T
     SCC iter.                  ...        0 min,  0.042 sec
     gradient                   ...        0 min,  0.008 sec
 * total energy  :   -23.3994394 Eh     change       -0.4064842E-03 Eh
   gradient norm :     0.0040216 Eh/α   predicted    -0.3968594E-03 (  -2.37%)
   displ. norm   :     0.0187790 α      lambda       -0.3282145E-04
   maximum displ.:     0.0141268 α      in ANC's #7, #5, #10, ...

........................................................................
.............................. CYCLE    4 ..............................
........................................................................

 iter      E             dE          RMSdq      gap      omega  full diag
   1    -23.7628310 -0.237628E+02  0.209E-02    3.43       0.0  T
   2    -23.7628311 -0.161341E-06  0.119E-02    3.43       2.2  T
   3    -23.7628311  0.862955E-07  0.454E-03    3.43       5.7  T
   4    -23.7628312 -0.133242E-06  0.639E-04    3.43      40.4  T
   5    -23.7628312 -0.136460E-08  0.337E-04    3.43      76.7  T
     SCC iter.                  ...        0 min,  0.091 sec
     gradient                   ...        0 min,  0.004 sec
 * total energy  :   -23.3994622 Eh     change       -0.2278797E-04 Eh
   gradient norm :     0.0017540 Eh/α   predicted    -0.1641494E-04 ( -27.97%)
   displ. norm   :     0.0213085 α      lambda       -0.1023754E-04
   maximum displ.:     0.0166035 α      in ANC's #7, #5, #20, ...

........................................................................
.............................. CYCLE    5 ..............................
........................................................................

 iter      E             dE          RMSdq      gap      omega  full diag
   1    -23.7617422 -0.237617E+02  0.200E-02    3.43       0.0  T
   2    -23.7617424 -0.150142E-06  0.116E-02    3.43       2.2  T
   3    -23.7617423  0.105260E-06  0.430E-03    3.43       6.0  T
   4    -23.7617424 -0.161823E-06  0.537E-04    3.43      48.1  T
   5    -23.7617424 -0.306628E-09  0.298E-04    3.43      86.6  T
     SCC iter.                  ...        0 min,  0.122 sec
     gradient                   ...        0 min,  0.005 sec
 * total energy  :   -23.3994674 Eh     change       -0.5162317E-05 Eh
   gradient norm :     0.0010710 Eh/α   predicted    -0.5120321E-05 (  -0.81%)
   displ. norm   :     0.0044496 α      lambda       -0.1551416E-05
   maximum displ.:     0.0024728 α      in ANC's #10, #7, #24, ...

........................................................................
.............................. CYCLE    6 ..............................
........................................................................

 iter      E             dE          RMSdq      gap      omega  full diag
   1    -23.7621869 -0.237622E+02  0.662E-03    3.43       0.0  T
   2    -23.7621870 -0.174445E-07  0.378E-03    3.43       6.8  T
   3    -23.7621870  0.824538E-08  0.146E-03    3.43      17.7  T
   4    -23.7621870 -0.129630E-07  0.187E-04    3.43     137.9  T
   5    -23.7621870 -0.145821E-09  0.937E-05    3.43     275.6  T
     SCC iter.                  ...        0 min,  0.063 sec
     gradient                   ...        0 min,  0.006 sec
 * total energy  :   -23.3994688 Eh     change       -0.1403761E-05 Eh
   gradient norm :     0.0003023 Eh/α   predicted    -0.7745314E-06 ( -44.82%)
   displ. norm   :     0.0039955 α      lambda       -0.3904547E-06
   maximum displ.:     0.0019122 α      in ANC's #9, #14, #1, ...

   *** GEOMETRY OPTIMIZATION CONVERGED AFTER 6 ITERATIONS ***

------------------------------------------------------------------------
 total energy gain   :        -0.0028398 Eh       -1.7820 kcal/mol
 total RMSD          :         0.0549835 a0        0.0291 Å
 total power (kW/mol):        -1.2426290 (step)  -15.7026 (real)
------------------------------------------------------------------------

 ANCopt (total)                0 d,  0 h,  0 min,  0.475 sec
 optimizer setup                ...        0 min,  0.000 sec (  0.037%)
 model hessian                  ...        0 min,  0.003 sec (  0.699%)
 ANC generation                 ...        0 min,  0.001 sec (  0.148%)
 coordinate transformation      ...        0 min,  0.000 sec (  0.017%)
 single point calculation       ...        0 min,  0.466 sec ( 98.044%)
 optimization log               ...        0 min,  0.001 sec (  0.172%)
 hessian update                 ...        0 min,  0.002 sec (  0.360%)
 rational function              ...        0 min,  0.001 sec (  0.212%)

================
 final structure:
================
15
 xtb: 6.7.1 (edcfbbe)
O           -2.76252206873335        0.02843325300083        0.00028768934973
N            2.77949108694761        0.00415099677947       -0.00192518496465
C            1.41434703185815       -0.00250782488361       -0.00048900197653
C            0.70084158141461       -1.20345643716643       -0.00025205949495
C            0.68888239826701        1.19320777111197       -0.00025498448270
C           -1.38829661241417       -0.01554014762761        0.00008198610783
C           -0.68058329357663       -1.20953413859433       -0.00000939312002
C           -0.68997969832231        1.18664332604131       -0.00000572204299
H            1.23776593544101       -2.14056083243809       -0.00034796553311
H            1.21735672721314        2.13496664669047       -0.00035694211037
H           -1.20961013833582       -2.15241375416459        0.00011922765585
H           -1.24798361307384        2.11040450691194        0.00012263596037
H            3.28545976200026       -0.85946266803647        0.00179960651934
H            3.27641090876731        0.87294902309950        0.00176378883819
H           -3.11808000745298       -0.87167972072436        0.00026631929402

 Bond Distances (Angstroems)
 ---------------------------
O1-C6=1.3749         O1-H15=0.9678        N2-C3=1.3652         N2-H13=1.0009        N2-H14=1.0009        C3-N2=1.3652         
C3-C4=1.3969         C3-C5=1.3986         C4-C3=1.3969         C4-C7=1.3814         C4-H9=1.0800         C5-C3=1.3986         
C5-C8=1.3789         C5-H10=1.0799        C6-O1=1.3749         C6-C7=1.3880         C6-C8=1.3903         C7-C4=1.3814         
C7-C6=1.3880         C7-H11=1.0812        C8-C5=1.3789         C8-C6=1.3903         C8-H12=1.0792        H9-C4=1.0800         
H10-C5=1.0799        H11-C7=1.0812        H12-C8=1.0792        H13-N2=1.0009        H14-N2=1.0009        H15-O1=0.9678        
 C  H  Rav=1.0801 sigma=0.0007  Rmin=1.0792  Rmax=1.0812     4
 C  C  Rav=1.3890 sigma=0.0073  Rmin=1.3789  Rmax=1.3986     6
 N  H  Rav=1.0009 sigma=0.0000  Rmin=1.0009  Rmax=1.0009     2
 N  C  Rav=1.3652 sigma=0.0000  Rmin=1.3652  Rmax=1.3652     1
 O  H  Rav=0.9678 sigma=0.0000  Rmin=0.9678  Rmax=0.9678     1
 O  C  Rav=1.3749 sigma=0.0000  Rmin=1.3749  Rmax=1.3749     1

 selected bond angles (degree)
 --------------------
H15-O1-C6=109.72               H13-N2-C3=120.08               H14-N2-C3=120.05               H14-N2-H13=119.87              
C4-C3-N2=120.99                C5-C3-N2=120.97                C5-C3-C4=118.04                C7-C4-C3=120.97                
H9-C4-C3=119.47                H9-C4-C7=119.56                C8-C5-C3=120.97                H10-C5-C3=119.45               
H10-C5-C8=119.57               C7-C6-O1=122.49                C8-C6-O1=118.32                C8-C6-C7=119.19                
C6-C7-C4=120.40                H11-C7-C4=119.55               H11-C7-C6=120.05               C6-C8-C5=120.42                
H12-C8-C5=120.86               H12-C8-C6=118.71               

 selected dihedral angles (degree)
 ---------------------------------
C4-C3-N2-H13=359.69           C4-C3-N2-H14=180.25           C5-C3-N2-H13=179.74           C5-C3-N2-H14=  0.30           
C7-C4-C3-N2=180.06            C7-C4-C3-C5=  0.00            H9-C4-C3-N2=  0.05            H9-C4-C3-C5=180.00            
C8-C5-C3-N2=179.94            C8-C5-C3-C4=  0.00            H10-C5-C3-N2=359.95           H10-C5-C3-C4=180.00           
C7-C6-O1-H15=  0.00           C8-C6-O1-H15=180.00           C6-C7-C4-C3=  0.00            C6-C7-C4-H9=180.00            
H11-C7-C4-C3=180.00           H11-C7-C4-H9=  0.00           C4-C7-C6-O1=180.00            C4-C7-C6-C8=  0.00            
H11-C7-C6-O1=  0.00           H11-C7-C6-C8=180.00           C6-C8-C5-C3=  0.00            C6-C8-C5-H10=180.00           
H12-C8-C5-C3=180.00           H12-C8-C5-H10=  0.00          C5-C8-C6-O1=180.00            C5-C8-C6-C7=  0.00            
H12-C8-C6-O1=  0.00           H12-C8-C6-C7=180.00           
           -------------------------------------------------
          |                Final Singlepoint                |
           -------------------------------------------------

          ...................................................
          :                      SETUP                      :
          :.................................................:
          :  # basis functions                  39          :
          :  # atomic orbitals                  39          :
          :  # shells                           23          :
          :  # electrons                        42          :
          :  max. iterations                   250          :
          :  Hamiltonian                  GFN2-xTB          :
          :  restarted?                      false          :
          :  GBSA solvation                   true          :
          :  PC potential                    false          :
          :  electronic temp.          300.0000000     K    :
          :  accuracy                    1.0000000          :
          :  -> integral cutoff          0.2500000E+02      :
          :  -> integral neglect         0.1000000E-07      :
          :  -> SCF convergence          0.1000000E-05 Eh   :
          :  -> wf. convergence          0.1000000E-03 e    :
          :  Broyden damping             0.4000000          :
          :  net charge                          0          :
          :  unpaired electrons                  0          :
          ...................................................

 iter      E             dE          RMSdq      gap      omega  full diag
   1    -23.7621870 -0.237622E+02  0.446E-05    3.43       0.0  T
   2    -23.7621870 -0.214939E-11  0.289E-05    3.43     894.4  T
   3    -23.7621870 -0.806466E-12  0.128E-05    3.43    2021.1  T

   *** convergence criteria satisfied after 3 iterations ***

         #    Occupation            Energy/Eh            Energy/eV
      -------------------------------------------------------------
         1        2.0000           -0.6960830             -18.9414
       ...           ...                  ...                  ...
        15        2.0000           -0.4698062             -12.7841
        16        2.0000           -0.4576100             -12.4522
        17        2.0000           -0.4445982             -12.0981
        18        2.0000           -0.4124503             -11.2233
        19        2.0000           -0.4107989             -11.1784
        20        2.0000           -0.3937778             -10.7152
        21        2.0000           -0.3378964              -9.1946 (HOMO)
        22                         -0.2119531              -5.7675 (LUMO)
        23                         -0.1862188              -5.0673
        24                         -0.0711940              -1.9373
        25                          0.0333040               0.9062
        26                          0.0815349               2.2187
       ...                                ...                  ...
        39                          0.6790272              18.4773
      -------------------------------------------------------------
                  HL-Gap            0.1259433 Eh            3.4271 eV
             Fermi-level           -0.2749247 Eh           -7.4811 eV

 SCC (total)                   0 d,  0 h,  0 min,  0.026 sec
 SCC setup                      ...        0 min,  0.001 sec (  2.244%)
 Dispersion                     ...        0 min,  0.000 sec (  0.712%)
 classical contributions        ...        0 min,  0.001 sec (  2.339%)
 integral evaluation            ...        0 min,  0.001 sec (  3.401%)
 iterations                     ...        0 min,  0.017 sec ( 64.624%)
 molecular gradient             ...        0 min,  0.007 sec ( 26.323%)
 printout                       ...        0 min,  0.000 sec (  0.276%)

         :::::::::::::::::::::::::::::::::::::::::::::::::::::
         ::                     SUMMARY                     ::
         :::::::::::::::::::::::::::::::::::::::::::::::::::::
         :: total energy             -23.399468764848 Eh    ::
         :: total w/o Gsasa/hb       -23.391090606647 Eh    ::
         :: gradient norm              0.000303058454 Eh/a0 ::
         :: HOMO-LUMO gap              3.427092845784 eV    ::
         ::.................................................::
         :: SCC energy               -23.762177556762 Eh    ::
         :: -> isotropic ES            0.042361473920 Eh    ::
         :: -> anisotropic ES          0.005029376220 Eh    ::
         :: -> anisotropic XC          0.008909144079 Eh    ::
         :: -> dispersion             -0.011080129740 Eh    ::
         :: -> Gsolv                  -0.015014152683 Eh    ::
         ::    -> Gelec               -0.006635994481 Eh    ::
         ::    -> Gsasa               -0.000809842237 Eh    ::
         ::    -> Ghb                 -0.008649075663 Eh    ::
         ::    -> Gshift               0.001080759698 Eh    ::
         :: repulsion energy           0.362708791914 Eh    ::
         :: add. restraining           0.000000000000 Eh    ::
         :: total charge              -0.000000000000 e     ::
         :::::::::::::::::::::::::::::::::::::::::::::::::::::

           -------------------------------------------------
          |                Property Printout                |
           -------------------------------------------------

    * Orbital Energies and Occupations

         #    Occupation            Energy/Eh            Energy/eV
      -------------------------------------------------------------
         1        2.0000           -0.6960830             -18.9414
       ...           ...                  ...                  ...
         9        2.0000           -0.5302593             -14.4291
        10        2.0000           -0.5212931             -14.1851
        11        2.0000           -0.5067560             -13.7895
        12        2.0000           -0.5040863             -13.7169
        13        2.0000           -0.4779008             -13.0043
        14        2.0000           -0.4719215             -12.8416
        15        2.0000           -0.4698062             -12.7841
        16        2.0000           -0.4576100             -12.4522
        17        2.0000           -0.4445982             -12.0981
        18        2.0000           -0.4124503             -11.2233
        19        2.0000           -0.4107989             -11.1784
        20        2.0000           -0.3937778             -10.7152
        21        2.0000           -0.3378964              -9.1946 (HOMO)
        22                         -0.2119531              -5.7675 (LUMO)
        23                         -0.1862188              -5.0673
        24                         -0.0711940              -1.9373
        25                          0.0333040               0.9062
        26                          0.0815349               2.2187
        27                          0.1350142               3.6739
        28                          0.1602801               4.3614
        29                          0.1670402               4.5454
        30                          0.1965807               5.3492
        31                          0.2225520               6.0559
        32                          0.2462396               6.7005
       ...                                ...                  ...
        39                          0.6790272              18.4773
      -------------------------------------------------------------
                  HL-Gap            0.1259433 Eh            3.4271 eV
             Fermi-level           -0.2749247 Eh           -7.4811 eV

     #   Z          covCN         q      C6AA      α(0)
     1   8 O        1.658    -0.483    22.521     6.406
     2   7 N        2.643    -0.307    27.909     7.846
     3   6 C        2.896     0.072    26.392     8.423
     4   6 C        2.925    -0.074    29.859     8.961
     5   6 C        2.925    -0.073    29.827     8.956
     6   6 C        2.845     0.119    25.374     8.256
     7   6 C        2.917    -0.077    29.918     8.970
     8   6 C        2.918    -0.063    29.570     8.917
     9   1 H        0.926     0.031     2.570     2.507
    10   1 H        0.926     0.031     2.569     2.506
    11   1 H        0.926     0.030     2.591     2.517
    12   1 H        0.926     0.033     2.543     2.494
    13   1 H        0.861     0.201     1.100     1.643
    14   1 H        0.861     0.200     1.104     1.646
    15   1 H        0.805     0.360     0.566     1.181

 Mol. C6AA /au·bohr⁶  :       2622.453817
 Mol. C8AA /au·bohr⁸  :      62537.766851
 Mol. α(0) /au        :         81.229750


Wiberg/Mayer (AO) data.
largest (>0.10) Wiberg bond orders for each atom

 ---------------------------------------------------------------------------
     #   Z sym  total        # sym  WBO       # sym  WBO       # sym  WBO
 ---------------------------------------------------------------------------
     1   8 O    2.030 --     6 C    1.038    15 H    0.851
     2   7 N    3.280 --     3 C    1.194    14 H    0.942    13 H    0.942
     3   6 C    3.976 --     4 C    1.334     5 C    1.326     2 N    1.194
     4   6 C    3.985 --     7 C    1.456     3 C    1.334     9 H    0.969
                             8 C    0.103
     5   6 C    3.985 --     8 C    1.471     3 C    1.326    10 H    0.969
                             7 C    0.102
     6   6 C    3.932 --     7 C    1.376     8 C    1.364     1 O    1.038
     7   6 C    3.987 --     4 C    1.456     6 C    1.376    11 H    0.967
                             5 C    0.102
     8   6 C    3.989 --     5 C    1.471     6 C    1.364    12 H    0.970
                             4 C    0.103
     9   1 H    0.999 --     4 C    0.969
    10   1 H    0.999 --     5 C    0.969
    11   1 H    0.999 --     7 C    0.967
    12   1 H    0.998 --     8 C    0.970
    13   1 H    0.959 --     2 N    0.942
    14   1 H    0.959 --     2 N    0.942
    15   1 H    0.870 --     1 O    0.851
 ---------------------------------------------------------------------------

Topologies differ in total number of bonds
Writing topology from bond orders to xtbtopo.mol

molecular dipole:
                 x           y           z       tot (Debye)
 q only:        1.141      -0.572       0.002
   full:        1.171      -0.726       0.005       3.503
molecular quadrupole (traceless):
                xx          xy          yy          xz          yz          zz
 q only:        6.516       5.357      -1.301       0.021      -0.000      -5.215
  q+dip:        7.014       6.732       1.974       0.046      -0.001      -8.988
   full:        6.628       6.823       0.550       0.047      -0.001      -7.178

           -------------------------------------------------
          |                Geometry Summary                 |
           -------------------------------------------------

      molecular mass/u    :      109.1261088
   center of mass at/Å    :       -0.0115053      -0.0092987      -0.0002761
  moments of inertia/u·Å² :        0.8962588E+02   0.3379435E+03   0.4275694E+03
rotational constants/cm⁻¹ :        0.1880889E+00   0.4988299E-01   0.3942666E-01

 * 15 selected distances

     #   Z          #   Z                                           value/Å
     2   7 N        3   6 C                                       1.3651612
     3   6 C        4   6 C                                       1.3969137
     3   6 C        5   6 C                                       1.3985833 (max)
     1   8 O        6   6 C                                       1.3749290
     4   6 C        7   6 C                                       1.3814384
     6   6 C        7   6 C                                       1.3879770
     5   6 C        8   6 C                                       1.3788779
     6   6 C        8   6 C                                       1.3902849
     4   6 C        9   1 H                                       1.0800244
     5   6 C       10   1 H                                       1.0799051
     7   6 C       11   1 H                                       1.0811529
     8   6 C       12   1 H                                       1.0792142
     2   7 N       13   1 H                                       1.0009230
     2   7 N       14   1 H                                       1.0008762
     1   8 O       15   1 H                                       0.9677939 (min)

 * 6 distinct bonds (by element types)

   Z      Z             #   av. dist./Å        max./Å        min./Å
   1 H    6 C           4     1.0800742     1.0811529     1.0792142
   6 C    6 C           6     1.3890125     1.3985833     1.3788779
   1 H    7 N           2     1.0008996     1.0009230     1.0008762
   6 C    7 N           1     1.3651612     1.3651612     1.3651612
   1 H    8 O           1     0.9677939     0.9677939     0.9677939
   6 C    8 O           1     1.3749290     1.3749290     1.3749290


optimized geometry written to: xtbopt.xyz


           -------------------------------------------------
          | TOTAL ENERGY              -23.399468764848 Eh   |
          | GRADIENT NORM               0.000303058454 Eh/α |
          | HOMO-LUMO GAP               3.427092845784 eV   |
           -------------------------------------------------

------------------------------------------------------------------------
 * finished run on 2026/06/07 at 14:02:13.202     
------------------------------------------------------------------------
 total:
 * wall-time:     0 d,  0 h,  0 min,  0.646 sec
 *  cpu-time:     0 d,  0 h,  0 min,  9.503 sec
 * ratio c/w:    14.711 speedup
 SCF:
 * wall-time:     0 d,  0 h,  0 min,  0.106 sec
 *  cpu-time:     0 d,  0 h,  0 min,  1.541 sec
 * ratio c/w:    14.574 speedup
 ANC optimizer:
 * wall-time:     0 d,  0 h,  0 min,  0.502 sec
 *  cpu-time:     0 d,  0 h,  0 min,  7.401 sec
 * ratio c/w:    14.745 speedup

