 Entering Gaussian System
 *********************************************
 Gaussian 98:
 frequency output generated by the xtb code
 *********************************************
                         Standard orientation:
 --------------------------------------------------------------------
  Center     Atomic     Atomic              Coordinates (Angstroms)
  Number     Number      Type              X           Y           Z
 --------------------------------------------------------------------
    1          8             0       -0.000021    0.566301   -0.000061
    2          8             0        1.354785   -1.264209   -0.002850
    3          8             0       -1.354781   -1.264244    0.002652
    4          6             0        1.214764   -0.083931   -0.001616
    5          6             0       -1.214790   -0.083962    0.001576
    6          6             0        2.308453    0.945588    0.001316
    7          6             0       -2.308505    0.945530   -0.000945
    8          1             0        3.274358    0.450552   -0.007179
    9          1             0        2.216132    1.569040    0.887451
   10          1             0        2.207398    1.583913   -0.873002
   11          1             0       -2.208982    1.581655    0.875164
   12          1             0       -3.274407    0.450451    0.004814
   13          1             0       -2.214667    1.571215   -0.885333
 --------------------------------------------------------------------
     1 basis functions        1 primitive gaussians
     1 alpha electrons        1 beta electrons

 Harmonic frequencies (cm**-1), IR intensities (km*mol⁻¹),
 Raman scattering activities (A**4/amu), Raman depolarization ratios,
 reduced masses (AMU), force constants (mDyne/A) and normal coordinates:
                      1                      2                      3
                        a                      a                      a 
 Frequencies --   -26.2231                55.0187                58.7929
 Red. masses --    11.8731                 2.8544                 1.9123
 Frc consts  --     0.0000                 0.0000                 0.0000
 IR Inten    --     0.0000                 0.0002                 0.5474
 Raman Activ --     0.0000                 0.0000                 0.0000
 Depolar     --     0.0000                 0.0000                 0.0000
 Atom AN      X      Y      Z        X      Y      Z        X      Y      Z
   1   8     0.00  -0.00   0.00     0.00   0.00   0.00     0.00  -0.00   0.15
   2   8     0.00  -0.00   0.53    -0.00   0.00  -0.24    -0.00   0.00  -0.13
   3   8    -0.00  -0.00  -0.53     0.00   0.00   0.24    -0.00  -0.00  -0.13
   4   6     0.00  -0.00   0.08    -0.00   0.00  -0.03     0.00  -0.00   0.03
   5   6    -0.00  -0.00  -0.08     0.00   0.00   0.03     0.00   0.00   0.03
   6   6     0.00   0.00  -0.31     0.00  -0.00   0.07    -0.00   0.00   0.04
   7   6    -0.00   0.00   0.31    -0.00  -0.00  -0.07     0.00   0.00   0.04
   8   1     0.00  -0.00   0.01     0.00  -0.00   0.38     0.00  -0.00   0.38
   9   1    -0.03   0.14  -0.19    -0.23   0.25  -0.18    -0.22   0.27  -0.20
  10   1     0.03  -0.13  -0.19     0.23  -0.24  -0.19     0.22  -0.26  -0.21
  11   1    -0.03  -0.13   0.19    -0.23  -0.24   0.18     0.22   0.26  -0.21
  12   1    -0.00  -0.00  -0.01    -0.00  -0.00  -0.38     0.00   0.00   0.38
  13   1     0.03   0.13   0.19     0.23   0.25   0.18    -0.22  -0.27  -0.20
                      4                      5                      6
                        a                      a                      a 
 Frequencies --   114.6741               166.1583               332.0880
 Red. masses --    12.9772                12.7430                11.0900
 Frc consts  --     0.0000                 0.0000                 0.0000
 IR Inten    --     1.2879                 1.4478                 0.7640
 Raman Activ --     0.0000                 0.0000                 0.0000
 Depolar     --     0.0000                 0.0000                 0.0000
 Atom AN      X      Y      Z        X      Y      Z        X      Y      Z
   1   8    -0.00  -0.00  -0.78     0.00  -0.36   0.00    -0.00   0.05   0.00
   2   8     0.00  -0.00   0.12     0.48  -0.06  -0.00    -0.41  -0.13   0.00
   3   8     0.00   0.00   0.12    -0.48  -0.06   0.00     0.41  -0.13  -0.00
   4   6     0.00  -0.00  -0.11     0.11  -0.09  -0.00    -0.15  -0.09  -0.00
   5   6     0.00   0.00  -0.11    -0.11  -0.09   0.00     0.15  -0.09   0.00
   6   6    -0.00  -0.00   0.32    -0.21   0.27   0.00    -0.39   0.14   0.00
   7   6    -0.00   0.00   0.32     0.21   0.27  -0.00     0.39   0.14  -0.00
   8   1     0.00   0.00   0.19    -0.01   0.18   0.00    -0.05   0.16   0.00
   9   1    -0.09  -0.02   0.09    -0.13   0.07  -0.00    -0.20   0.03  -0.00
  10   1     0.09   0.02   0.09    -0.13   0.07   0.00    -0.20   0.03   0.00
  11   1     0.09  -0.02   0.09     0.13   0.07  -0.00     0.20   0.03  -0.00
  12   1     0.00   0.00   0.19     0.01   0.18  -0.00     0.05   0.16  -0.00
  13   1    -0.09   0.02   0.09     0.13   0.07   0.00     0.20   0.03   0.00
                      7                      8                      9
                        a                      a                      a 
 Frequencies --   373.7044               508.6307               538.4589
 Red. masses --    11.0314                12.7047                 8.9672
 Frc consts  --     0.0000                 0.0000                 0.0000
 IR Inten    --     0.1530                40.9417                 0.0005
 Raman Activ --     0.0000                 0.0000                 0.0000
 Depolar     --     0.0000                 0.0000                 0.0000
 Atom AN      X      Y      Z        X      Y      Z        X      Y      Z
   1   8     0.19   0.00   0.00    -0.30  -0.00   0.00    -0.00  -0.00  -0.00
   2   8     0.19  -0.36  -0.00     0.48   0.05   0.00    -0.00  -0.00  -0.20
   3   8     0.19   0.36  -0.00     0.48  -0.05   0.00     0.00  -0.00   0.20
   4   6     0.09  -0.33  -0.00    -0.25  -0.03  -0.00     0.00  -0.00   0.55
   5   6     0.09   0.33   0.00    -0.25   0.03   0.00    -0.00  -0.00  -0.55
   6   6    -0.30   0.04  -0.00    -0.13  -0.27  -0.00     0.00   0.00  -0.00
   7   6    -0.30  -0.04   0.00    -0.13   0.27  -0.00    -0.00   0.00   0.00
   8   1    -0.00   0.18   0.00    -0.10  -0.21  -0.00    -0.00  -0.00  -0.14
   9   1    -0.20   0.00  -0.00     0.05  -0.07   0.00     0.19   0.15  -0.09
  10   1    -0.20   0.00   0.00     0.05  -0.07  -0.00    -0.19  -0.15  -0.09
  11   1    -0.20  -0.00   0.00     0.05   0.07  -0.00     0.19  -0.15   0.09
  12   1    -0.00  -0.18   0.00    -0.10   0.21  -0.00     0.00   0.00   0.14
  13   1    -0.20  -0.00  -0.00     0.05   0.07   0.00    -0.19   0.15   0.09
                     10                     11                     12
                        a                      a                      a 
 Frequencies --   591.3725               677.7902               851.8230
 Red. masses --     9.6976                11.3378                12.3973
 Frc consts  --     0.0000                 0.0000                 0.0000
 IR Inten    --    22.8300                 0.0509                17.3783
 Raman Activ --     0.0000                 0.0000                 0.0000
 Depolar     --     0.0000                 0.0000                 0.0000
 Atom AN      X      Y      Z        X      Y      Z        X      Y      Z
   1   8    -0.00  -0.00  -0.37     0.00  -0.25   0.00    -0.00   0.74  -0.00
   2   8     0.00  -0.00  -0.20    -0.27  -0.15   0.00     0.15  -0.20  -0.00
   3   8     0.00  -0.00  -0.20     0.27  -0.15  -0.00    -0.15  -0.20   0.00
   4   6    -0.00  -0.00   0.49     0.30  -0.06  -0.00     0.16  -0.14   0.00
   5   6    -0.00   0.00   0.49    -0.30  -0.06   0.00    -0.16  -0.14   0.00
   6   6     0.00   0.00   0.04     0.35   0.29   0.00     0.09  -0.10  -0.00
   7   6     0.00   0.00   0.04    -0.35   0.29  -0.00    -0.09  -0.10   0.00
   8   1    -0.00  -0.00  -0.12     0.16   0.19   0.00     0.14   0.20   0.00
   9   1     0.19   0.16  -0.08     0.03   0.07  -0.00    -0.14  -0.03  -0.01
  10   1    -0.18  -0.15  -0.08     0.03   0.07   0.00    -0.14  -0.03   0.01
  11   1    -0.18   0.15  -0.08    -0.03   0.07  -0.00     0.14  -0.03  -0.01
  12   1    -0.00   0.00  -0.12    -0.16   0.19  -0.00    -0.14   0.20  -0.00
  13   1     0.19  -0.15  -0.08    -0.03   0.07   0.00     0.14  -0.03   0.01
                     13                     14                     15
                        a                      a                      a 
 Frequencies --   941.9340               975.0112              1001.6951
 Red. masses --    12.8901                 9.3566                 5.7633
 Frc consts  --     0.0000                 0.0000                 0.0000
 IR Inten    --    40.8479               360.3645                 0.0005
 Raman Activ --     0.0000                 0.0000                 0.0000
 Depolar     --     0.0000                 0.0000                 0.0000
 Atom AN      X      Y      Z        X      Y      Z        X      Y      Z
   1   8     0.60   0.00  -0.00    -0.52   0.00  -0.00     0.00   0.00   0.00
   2   8    -0.05   0.28   0.00    -0.00   0.12  -0.00     0.00  -0.00   0.07
   3   8    -0.05  -0.28   0.00    -0.00  -0.12  -0.00    -0.00  -0.00  -0.07
   4   6     0.07   0.19   0.00     0.30   0.05   0.00    -0.00  -0.00  -0.35
   5   6     0.07  -0.19   0.00     0.30  -0.05   0.00     0.00  -0.00   0.35
   6   6    -0.27  -0.27  -0.00     0.08  -0.28  -0.00    -0.00   0.00   0.30
   7   6    -0.27   0.27  -0.00     0.08   0.28  -0.00     0.00   0.00  -0.30
   8   1    -0.07  -0.06   0.00     0.16   0.21   0.00    -0.00  -0.00  -0.15
   9   1    -0.13  -0.08   0.00    -0.21  -0.08  -0.02     0.25   0.25  -0.09
  10   1    -0.13  -0.08  -0.00    -0.22  -0.08   0.02    -0.24  -0.25  -0.09
  11   1    -0.13   0.08  -0.00    -0.21   0.08   0.02     0.24  -0.25   0.09
  12   1    -0.07   0.06  -0.00     0.16  -0.21   0.00     0.00  -0.00   0.15
  13   1    -0.13   0.08   0.00    -0.21   0.08  -0.02    -0.25   0.25   0.09
                     16                     17                     18
                        a                      a                      a 
 Frequencies --  1005.1739              1013.2788              1091.0902
 Red. masses --     6.0007                 8.9845                 8.5512
 Frc consts  --     0.0000                 0.0000                 0.0000
 IR Inten    --    75.0771                26.4774               676.0864
 Raman Activ --     0.0000                 0.0000                 0.0000
 Depolar     --     0.0000                 0.0000                 0.0000
 Atom AN      X      Y      Z        X      Y      Z        X      Y      Z
   1   8    -0.00   0.00   0.11     0.00  -0.29   0.00    -0.25  -0.00   0.00
   2   8     0.00   0.00   0.08    -0.07   0.29   0.00    -0.06  -0.03  -0.00
   3   8    -0.00  -0.00   0.08     0.07   0.29  -0.00    -0.06   0.03  -0.00
   4   6     0.00   0.00  -0.35     0.22   0.17  -0.00     0.47  -0.02  -0.00
   5   6     0.00  -0.00  -0.35    -0.22   0.17   0.00     0.47   0.02  -0.00
   6   6    -0.00  -0.00   0.29     0.01  -0.33   0.00    -0.27   0.06   0.00
   7   6    -0.00   0.00   0.29    -0.01  -0.33  -0.00    -0.27  -0.06   0.00
   8   1    -0.00  -0.00  -0.15     0.13   0.17  -0.00    -0.22  -0.29  -0.00
   9   1     0.24   0.25  -0.08    -0.24  -0.10  -0.02     0.13   0.01   0.02
  10   1    -0.24  -0.25  -0.09    -0.25  -0.10   0.01     0.14   0.02  -0.02
  11   1    -0.24   0.25  -0.09     0.25  -0.10  -0.01     0.14  -0.02  -0.02
  12   1    -0.00  -0.00  -0.15    -0.13   0.17   0.00    -0.22   0.29  -0.00
  13   1     0.24  -0.25  -0.09     0.24  -0.10   0.01     0.13  -0.01   0.02
                     19                     20                     21
                        a                      a                      a 
 Frequencies --  1154.5666              1362.9285              1364.4329
 Red. masses --     9.6071                 3.2831                 3.4341
 Frc consts  --     0.0000                 0.0000                 0.0000
 IR Inten    --     3.2522                37.8875                47.8206
 Raman Activ --     0.0000                 0.0000                 0.0000
 Depolar     --     0.0000                 0.0000                 0.0000
 Atom AN      X      Y      Z        X      Y      Z        X      Y      Z
   1   8    -0.00   0.12   0.00    -0.01  -0.00   0.00     0.00  -0.01   0.00
   2   8    -0.07  -0.03   0.00     0.00  -0.02  -0.00    -0.01   0.02   0.00
   3   8     0.07  -0.03  -0.00     0.00   0.02  -0.00     0.01   0.02  -0.00
   4   6     0.55   0.03  -0.00    -0.02  -0.00  -0.00     0.05   0.01  -0.00
   5   6    -0.55   0.03   0.00    -0.02   0.00  -0.00    -0.05   0.01   0.00
   6   6    -0.26   0.01   0.00     0.21   0.24   0.00    -0.22  -0.24  -0.00
   7   6     0.26   0.01  -0.00     0.21  -0.24   0.00     0.22  -0.24   0.00
   8   1    -0.20  -0.26  -0.00    -0.14  -0.30  -0.00     0.14   0.30   0.00
   9   1     0.06  -0.02   0.02    -0.26  -0.23   0.15     0.26   0.23  -0.15
  10   1     0.06  -0.01  -0.02    -0.26  -0.23  -0.16     0.26   0.22   0.15
  11   1    -0.06  -0.01   0.02    -0.26   0.23  -0.16    -0.26   0.22  -0.15
  12   1     0.20  -0.26   0.00    -0.14   0.30  -0.00    -0.14   0.30  -0.00
  13   1    -0.06  -0.02  -0.02    -0.26   0.23   0.15    -0.26   0.23   0.15
                     22                     23                     24
                        a                      a                      a 
 Frequencies --  1436.8384              1437.5151              1438.4581
 Red. masses --     1.6429                 1.5885                 1.5927
 Frc consts  --     0.0000                 0.0000                 0.0000
 IR Inten    --     7.6920                 0.0078                22.8657
 Raman Activ --     0.0000                 0.0000                 0.0000
 Depolar     --     0.0000                 0.0000                 0.0000
 Atom AN      X      Y      Z        X      Y      Z        X      Y      Z
   1   8     0.01  -0.00   0.00     0.00   0.00  -0.00     0.00   0.00  -0.01
   2   8     0.00  -0.04   0.00    -0.00   0.00  -0.00     0.00  -0.00  -0.00
   3   8     0.00   0.04   0.00     0.00   0.00   0.00     0.00   0.00  -0.00
   4   6    -0.00   0.02  -0.00     0.00  -0.00   0.03     0.00   0.00   0.03
   5   6    -0.00  -0.02  -0.00    -0.00  -0.00  -0.03     0.00  -0.00   0.03
   6   6     0.15  -0.07  -0.01    -0.00  -0.00   0.16     0.01  -0.00   0.16
   7   6     0.15   0.07  -0.01     0.00   0.00  -0.16     0.01   0.00   0.16
   8   1    -0.11  -0.26   0.02    -0.00   0.01  -0.52    -0.01  -0.00  -0.52
   9   1    -0.19   0.31  -0.24    -0.31   0.05  -0.05    -0.32   0.07  -0.06
  10   1    -0.22   0.31   0.25     0.31  -0.06  -0.06     0.30  -0.04  -0.05
  11   1    -0.21  -0.31   0.25    -0.32  -0.06   0.06     0.30   0.04  -0.04
  12   1    -0.11   0.26   0.01    -0.00   0.01   0.52    -0.01   0.01  -0.52
  13   1    -0.20  -0.31  -0.24     0.30   0.05   0.05    -0.32  -0.07  -0.06
                     25                     26                     27
                        a                      a                      a 
 Frequencies --  1439.3114              1803.5452              1860.6508
 Red. masses --     1.6355                13.5042                13.3936
 Frc consts  --     0.0000                 0.0000                 0.0000
 IR Inten    --    28.0345                54.4012               744.0161
 Raman Activ --     0.0000                 0.0000                 0.0000
 Depolar     --     0.0000                 0.0000                 0.0000
 Atom AN      X      Y      Z        X      Y      Z        X      Y      Z
   1   8    -0.00  -0.00  -0.00    -0.02   0.00  -0.00    -0.00  -0.06  -0.00
   2   8     0.00  -0.03   0.00     0.04  -0.44  -0.00     0.04  -0.42  -0.00
   3   8    -0.00  -0.03  -0.00     0.04   0.44  -0.00    -0.04  -0.42   0.00
   4   6    -0.01   0.01   0.00    -0.00   0.55   0.00    -0.03   0.56   0.00
   5   6     0.01   0.01  -0.00    -0.00  -0.55   0.00     0.03   0.56  -0.00
   6   6     0.15  -0.07   0.00    -0.04  -0.04  -0.00    -0.02  -0.04  -0.00
   7   6    -0.15  -0.07  -0.00    -0.04   0.04  -0.00     0.02  -0.04   0.00
   8   1    -0.11  -0.26  -0.01     0.01   0.03  -0.00     0.01   0.03   0.00
   9   1    -0.21   0.31  -0.24    -0.01  -0.02   0.01    -0.01  -0.02   0.01
  10   1    -0.20   0.30   0.25    -0.01  -0.02  -0.01    -0.01  -0.02  -0.01
  11   1     0.20   0.30  -0.25    -0.01   0.02  -0.01     0.01  -0.02   0.01
  12   1     0.11  -0.26   0.01     0.01  -0.03  -0.00    -0.01   0.03  -0.00
  13   1     0.21   0.31   0.24    -0.01   0.02   0.01     0.01  -0.02  -0.01
                     28                     29                     30
                        a                      a                      a 
 Frequencies --  3035.5731              3035.8579              3041.7569
 Red. masses --     1.9450                 1.9419                 1.4062
 Frc consts  --     0.0000                 0.0000                 0.0000
 IR Inten    --     0.0383                 5.6121                 1.3159
 Raman Activ --     0.0000                 0.0000                 0.0000
 Depolar     --     0.0000                 0.0000                 0.0000
 Atom AN      X      Y      Z        X      Y      Z        X      Y      Z
   1   8     0.00   0.00   0.00    -0.00  -0.00  -0.00     0.00  -0.00  -0.00
   2   8    -0.00   0.00   0.00     0.00  -0.00  -0.00    -0.00   0.00  -0.00
   3   8     0.00   0.00  -0.00     0.00   0.00  -0.00    -0.00  -0.00  -0.00
   4   6    -0.00  -0.00  -0.01     0.00   0.00   0.00    -0.00  -0.01   0.00
   5   6     0.00  -0.00   0.00     0.00  -0.00   0.01    -0.00   0.01   0.00
   6   6    -0.00  -0.02  -0.22    -0.00   0.02   0.19     0.00  -0.13   0.03
   7   6     0.00  -0.01   0.19    -0.00  -0.02   0.22     0.00   0.13   0.03
   8   1     0.01  -0.01  -0.03    -0.01   0.01   0.02     0.09  -0.06   0.00
   9   1    -0.05   0.33   0.45     0.05  -0.30  -0.41    -0.04   0.22   0.34
  10   1     0.05  -0.27   0.34    -0.04   0.24  -0.30    -0.05   0.30  -0.44
  11   1    -0.04  -0.25  -0.32    -0.04  -0.27  -0.34    -0.05  -0.31  -0.45
  12   1    -0.01  -0.00   0.02    -0.01  -0.01   0.03     0.09   0.06   0.00
  13   1     0.05   0.29  -0.40     0.05   0.33  -0.45    -0.04  -0.23   0.36
                     31                     32                     33
                        a                      a                      a 
 Frequencies --  3042.6370              3071.5351              3071.7953
 Red. masses --     1.3903                 1.8289                 1.8399
 Frc consts  --     0.0000                 0.0000                 0.0000
 IR Inten    --     2.0383                 7.3618                 4.6054
 Raman Activ --     0.0000                 0.0000                 0.0000
 Depolar     --     0.0000                 0.0000                 0.0000
 Atom AN      X      Y      Z        X      Y      Z        X      Y      Z
   1   8     0.00   0.00  -0.00    -0.00   0.00  -0.00    -0.00  -0.00   0.00
   2   8    -0.00   0.00  -0.00    -0.00   0.00   0.00     0.00  -0.00  -0.00
   3   8     0.00   0.00   0.00    -0.00  -0.00   0.00    -0.00  -0.00   0.00
   4   6    -0.00  -0.01   0.00     0.01  -0.00  -0.00    -0.01   0.01   0.00
   5   6     0.00  -0.01  -0.00     0.00   0.00  -0.00     0.01   0.01  -0.00
   6   6    -0.00  -0.13   0.02     0.17  -0.11  -0.00    -0.16   0.10   0.00
   7   6     0.00  -0.13  -0.02     0.16   0.10  -0.00     0.17   0.11   0.00
   8   1     0.11  -0.07   0.00    -0.61   0.31   0.01     0.59  -0.30  -0.01
   9   1    -0.04   0.23   0.36     0.01   0.03   0.06    -0.01  -0.03  -0.06
  10   1    -0.05   0.31  -0.45     0.01   0.03  -0.06    -0.01  -0.04   0.07
  11   1     0.05   0.29   0.43     0.01  -0.03  -0.06     0.01  -0.04  -0.07
  12   1    -0.10  -0.07  -0.00    -0.59  -0.30   0.00    -0.61  -0.31   0.00
  13   1     0.04   0.23  -0.35     0.01  -0.03   0.06     0.01  -0.03   0.07
