13
 xtb: 6.7.1 (edcfbbe)
O           -0.00001700658253        0.56623070136872       -0.00005073326195
O            1.35494028630641       -1.26440099058667        0.13856037953603
O           -1.35495100086988       -1.26440834554055       -0.13878082375500
C            1.21478855183998       -0.08400275361781        0.02072728545940
C           -1.21481157881804       -0.08402345427579       -0.02076285373930
C            2.30846485261279        0.94582625640673       -0.08123704901789
C           -2.30850667218192        0.94574491636385        0.08161941785181
H            3.27441222285204        0.45025999645476       -0.00412372175604
H            2.20851266811072        1.60481016001775        0.83750596388823
H            2.21495650329879        1.54876346530679       -0.92362216241295
H           -2.21651005571744        1.54647286459155        0.92564632208973
H           -3.27443898997012        0.45026338362628        0.00183045767972
H           -2.20710267496738        1.60685424552579       -0.83532400478016
