 Entering Gaussian System
 *********************************************
 Gaussian 98:
 frequency output generated by the xtb code
 *********************************************
                         Standard orientation:
 --------------------------------------------------------------------
  Center     Atomic     Atomic              Coordinates (Angstroms)
  Number     Number      Type              X           Y           Z
 --------------------------------------------------------------------
    1          8             0       -2.762522    0.028448    0.000297
    2          7             0        2.779491    0.004136   -0.001935
    3          6             0        1.414347   -0.002515   -0.000494
    4          6             0        0.700835   -1.203460   -0.000252
    5          6             0        0.688889    1.193204   -0.000259
    6          6             0       -1.388297   -0.015533    0.000087
    7          6             0       -0.680590   -1.209531   -0.000005
    8          6             0       -0.689974    1.186647   -0.000005
    9          1             0        1.237755   -2.140568   -0.000349
   10          1             0        1.217368    2.134960   -0.000365
   11          1             0       -1.209622   -2.152408    0.000127
   12          1             0       -1.247973    2.110411    0.000123
   13          1             0        3.285456   -0.859480    0.001790
   14          1             0        3.276416    0.872932    0.001751
   15          1             0       -3.118085   -0.871663    0.000279
 --------------------------------------------------------------------
     1 basis functions        1 primitive gaussians
     1 alpha electrons        1 beta electrons

 Harmonic frequencies (cm**-1), IR intensities (km*mol⁻¹),
 Raman scattering activities (A**4/amu), Raman depolarization ratios,
 reduced masses (AMU), force constants (mDyne/A) and normal coordinates:
                      1                      2                      3
                        a                      a                      a 
 Frequencies --  -408.8338               146.4187               319.5292
 Red. masses --     4.1692                12.1264                11.0433
 Frc consts  --     0.0000                 0.0000                 0.0000
 IR Inten    --   298.9579                 1.2621                 9.7280
 Raman Activ --     0.0000                 0.0000                 0.0000
 Depolar     --     0.0000                 0.0000                 0.0000
 Atom AN      X      Y      Z        X      Y      Z        X      Y      Z
   1   8    -0.00  -0.00  -0.00     0.00  -0.00  -0.54     0.04   0.52  -0.00
   2   7    -0.00  -0.00   0.48    -0.00  -0.00  -0.50    -0.01   0.49   0.00
   3   6     0.00   0.00  -0.11     0.00   0.00   0.05    -0.01  -0.20  -0.00
   4   6     0.00  -0.00  -0.04     0.00   0.00   0.29     0.02  -0.22  -0.00
   5   6     0.00   0.00  -0.04     0.00   0.00   0.29    -0.02  -0.22  -0.00
   6   6     0.00   0.00   0.01     0.00  -0.00   0.05     0.01  -0.18   0.00
   7   6     0.00   0.00   0.01     0.00   0.00   0.27    -0.04  -0.22   0.00
   8   6     0.00  -0.00   0.01     0.00   0.00   0.27     0.04  -0.21   0.00
   9   1     0.00  -0.00  -0.01     0.00   0.00   0.10     0.00  -0.07  -0.00
  10   1    -0.00   0.00  -0.01     0.00   0.00   0.10     0.00  -0.07  -0.00
  11   1     0.00   0.00   0.01     0.00  -0.00   0.09    -0.01  -0.06   0.00
  12   1     0.00  -0.00   0.01     0.00  -0.00   0.09    -0.00  -0.07   0.00
  13   1     0.00  -0.00  -0.62     0.00  -0.00  -0.21     0.16   0.23   0.00
  14   1     0.00   0.00  -0.61     0.00  -0.00  -0.21    -0.17   0.23  -0.00
  15   1     0.00  -0.00   0.01     0.00  -0.00  -0.13    -0.14   0.19  -0.00
                      4                      5                      6
                        a                      a                      a 
 Frequencies --   348.3203               360.9366               385.2062
 Red. masses --     4.3151                 9.6576                 7.6907
 Frc consts  --     0.0000                 0.0000                 0.0000
 IR Inten    --   191.8635                 3.3094                21.6945
 Raman Activ --     0.0000                 0.0000                 0.0000
 Depolar     --     0.0000                 0.0000                 0.0000
 Atom AN      X      Y      Z        X      Y      Z        X      Y      Z
   1   8    -0.00  -0.00  -0.34     0.00   0.00   0.24     0.00   0.00   0.04
   2   7     0.00   0.00   0.09    -0.00   0.00  -0.21     0.00   0.00   0.02
   3   6     0.00  -0.00  -0.13    -0.00   0.00   0.33    -0.00   0.00  -0.04
   4   6    -0.00  -0.00  -0.26     0.00  -0.00   0.19     0.00   0.00  -0.39
   5   6     0.00  -0.00   0.03     0.00   0.00   0.40    -0.00   0.00   0.31
   6   6    -0.00   0.00   0.13     0.00  -0.00  -0.39     0.00  -0.00   0.06
   7   6    -0.00   0.00   0.19     0.00  -0.00  -0.21     0.00  -0.00   0.45
   8   6     0.00  -0.00   0.03    -0.00  -0.00  -0.39    -0.00  -0.00  -0.37
   9   1    -0.00  -0.00  -0.12     0.00  -0.00   0.07     0.00   0.00  -0.23
  10   1     0.00  -0.00   0.05     0.00   0.00   0.19    -0.00   0.00   0.18
  11   1    -0.00   0.00   0.11     0.00  -0.00  -0.06     0.00  -0.00   0.25
  12   1     0.00   0.00  -0.01    -0.00  -0.00  -0.16    -0.00  -0.00  -0.23
  13   1    -0.00  -0.00  -0.00     0.00  -0.00  -0.19    -0.00  -0.00  -0.18
  14   1    -0.00  -0.00   0.14     0.00  -0.00  -0.09     0.00  -0.00   0.21
  15   1     0.00  -0.00   0.83    -0.00   0.00   0.36    -0.00   0.00  -0.34
                      7                      8                      9
                        a                      a                      a 
 Frequencies --   409.1693               438.8148               441.1974
 Red. masses --     9.8808                 1.9798                12.7656
 Frc consts  --     0.0000                 0.0000                 0.0000
 IR Inten    --    11.4170                 0.0037                 1.4443
 Raman Activ --     0.0000                 0.0000                 0.0000
 Depolar     --     0.0000                 0.0000                 0.0000
 Atom AN      X      Y      Z        X      Y      Z        X      Y      Z
   1   8     0.09   0.37  -0.00     0.00   0.00  -0.00     0.52  -0.05  -0.00
   2   7    -0.04  -0.27   0.00    -0.00  -0.01   0.00    -0.47   0.01   0.00
   3   6    -0.04   0.31  -0.00    -0.00   0.00  -0.00    -0.38  -0.03   0.00
   4   6     0.10   0.22   0.00     0.00   0.00  -0.19    -0.05  -0.21   0.00
   5   6    -0.11   0.26  -0.00    -0.00   0.00   0.19    -0.03   0.17  -0.00
   6   6     0.05  -0.33   0.00     0.00  -0.00  -0.00     0.37   0.04   0.00
   7   6     0.10  -0.30  -0.00     0.00  -0.00   0.09     0.02  -0.15  -0.00
   8   6    -0.10  -0.25   0.00    -0.00  -0.00  -0.08     0.03   0.22   0.00
   9   1     0.12   0.11   0.00     0.00   0.00  -0.10     0.04  -0.03   0.00
  10   1    -0.11   0.11  -0.00    -0.00   0.00   0.10     0.07   0.00  -0.00
  11   1     0.11  -0.13  -0.00     0.00  -0.00   0.04    -0.08   0.00  -0.00
  12   1    -0.13  -0.13   0.00    -0.00  -0.00  -0.04    -0.06   0.02   0.00
  13   1    -0.17  -0.16  -0.01    -0.00   0.00   0.66    -0.11   0.01  -0.00
  14   1     0.15  -0.16   0.01     0.00   0.00  -0.67    -0.14   0.01   0.00
  15   1    -0.14   0.16   0.00    -0.00   0.00   0.00     0.15  -0.02  -0.00
                     10                     11                     12
                        a                      a                      a 
 Frequencies --   494.1174               616.0474               657.7733
 Red. masses --     8.5520                11.2811                11.4263
 Frc consts  --     0.0000                 0.0000                 0.0000
 IR Inten    --     0.3758                 1.8816                 0.2188
 Raman Activ --     0.0000                 0.0000                 0.0000
 Depolar     --     0.0000                 0.0000                 0.0000
 Atom AN      X      Y      Z        X      Y      Z        X      Y      Z
   1   8    -0.00   0.00  -0.14    -0.01  -0.16   0.00     0.00  -0.00  -0.06
   2   7    -0.00  -0.00  -0.12    -0.01   0.11  -0.00     0.00   0.00   0.06
   3   6     0.00   0.00   0.54    -0.01   0.09   0.00    -0.00  -0.00  -0.54
   4   6     0.00   0.00  -0.08    -0.39   0.25   0.00    -0.00   0.00   0.31
   5   6     0.00  -0.00  -0.08     0.40   0.26  -0.00    -0.00  -0.00   0.31
   6   6    -0.00  -0.00   0.55     0.00  -0.09  -0.00     0.00   0.00   0.51
   7   6     0.00   0.00  -0.14    -0.39  -0.24   0.00    -0.00  -0.00  -0.32
   8   6     0.00  -0.00  -0.13     0.40  -0.24  -0.00    -0.00   0.00  -0.31
   9   1    -0.00   0.00  -0.27    -0.08   0.09   0.00    -0.00   0.00   0.13
  10   1    -0.00   0.00  -0.27     0.08   0.09  -0.00     0.00  -0.00   0.13
  11   1     0.00  -0.00  -0.28    -0.08  -0.08   0.00    -0.00  -0.00  -0.09
  12   1    -0.00  -0.00  -0.28     0.09  -0.08   0.00    -0.00   0.00  -0.09
  13   1     0.00   0.00  -0.08     0.06   0.07  -0.00    -0.00  -0.00   0.05
  14   1     0.00  -0.00  -0.09    -0.06   0.07   0.00    -0.00   0.00   0.05
  15   1    -0.00   0.00   0.00     0.05  -0.06  -0.00     0.00  -0.00  -0.01
                     13                     14                     15
                        a                      a                      a 
 Frequencies --   757.2250               789.6969               849.1634
 Red. masses --    12.2595                 5.1780                 3.3248
 Frc consts  --     0.0000                 0.0000                 0.0000
 IR Inten    --    90.9042                46.5517                 0.1918
 Raman Activ --     0.0000                 0.0000                 0.0000
 Depolar     --     0.0000                 0.0000                 0.0000
 Atom AN      X      Y      Z        X      Y      Z        X      Y      Z
   1   8     0.52  -0.01  -0.00     0.00  -0.00  -0.05    -0.00  -0.00  -0.01
   2   7     0.40   0.00   0.00    -0.00   0.00  -0.05    -0.00  -0.00  -0.00
   3   6     0.16  -0.00   0.00     0.00  -0.00   0.30    -0.00  -0.00   0.01
   4   6    -0.31   0.18   0.00    -0.00   0.00  -0.26     0.00   0.00   0.23
   5   6    -0.29  -0.18  -0.00    -0.00  -0.00  -0.24    -0.00   0.00  -0.29
   6   6     0.07  -0.00  -0.00    -0.00   0.00   0.28    -0.00  -0.00   0.03
   7   6    -0.31  -0.06   0.00    -0.00   0.00  -0.22     0.00   0.00   0.20
   8   6    -0.29   0.07   0.00     0.00  -0.00  -0.17    -0.00   0.00  -0.19
   9   1    -0.14   0.01  -0.00     0.00   0.00   0.47    -0.00   0.00  -0.43
  10   1    -0.14  -0.02   0.00     0.00  -0.00   0.41     0.00   0.00   0.56
  11   1    -0.12   0.01  -0.00     0.00   0.00   0.38    -0.00  -0.00  -0.39
  12   1    -0.12  -0.01  -0.00     0.00  -0.00   0.29     0.00  -0.00   0.36
  13   1     0.11   0.00  -0.00     0.00   0.00  -0.04     0.00   0.00  -0.00
  14   1     0.10   0.00  -0.00     0.00  -0.00  -0.04    -0.00   0.00  -0.00
  15   1     0.11   0.00  -0.00     0.00  -0.00  -0.02    -0.00   0.00  -0.00
                     16                     17                     18
                        a                      a                      a 
 Frequencies --   878.5868               881.8464               903.8686
 Red. masses --    11.5323                 2.6249                 3.6019
 Frc consts  --     0.0000                 0.0000                 0.0000
 IR Inten    --    14.2138                 0.2707                 0.2221
 Raman Activ --     0.0000                 0.0000                 0.0000
 Depolar     --     0.0000                 0.0000                 0.0000
 Atom AN      X      Y      Z        X      Y      Z        X      Y      Z
   1   8     0.29   0.01   0.00    -0.00  -0.00   0.02     0.00  -0.00  -0.01
   2   7    -0.34   0.00   0.00     0.00   0.00  -0.01     0.00   0.00   0.00
   3   6    -0.03   0.01  -0.00     0.00  -0.00  -0.05     0.00   0.00   0.02
   4   6    -0.04   0.37  -0.00     0.00  -0.00  -0.24    -0.00   0.00  -0.16
   5   6    -0.04  -0.38  -0.00     0.00   0.00  -0.06     0.00  -0.00   0.24
   6   6    -0.11  -0.00  -0.00     0.00   0.00  -0.00     0.00  -0.00   0.01
   7   6     0.13   0.43   0.00    -0.00  -0.00   0.26    -0.00  -0.00   0.20
   8   6     0.13  -0.44   0.00    -0.00   0.00   0.12    -0.00   0.00  -0.34
   9   1    -0.07   0.08   0.00     0.00  -0.00   0.54     0.00  -0.00   0.23
  10   1    -0.07  -0.08   0.00     0.00   0.00   0.24    -0.00  -0.00  -0.45
  11   1     0.12   0.08  -0.00    -0.00  -0.00  -0.61    -0.00  -0.00  -0.31
  12   1     0.13  -0.07  -0.00    -0.00   0.00  -0.37     0.00  -0.00   0.64
  13   1    -0.12  -0.01   0.00     0.00  -0.00  -0.00    -0.00  -0.00  -0.01
  14   1    -0.10   0.01   0.00     0.00  -0.00   0.00     0.00  -0.00   0.01
  15   1     0.07  -0.00   0.00    -0.00  -0.00   0.01     0.00  -0.00   0.00
                     19                     20                     21
                        a                      a                      a 
 Frequencies --   968.4266              1009.5779              1108.7404
 Red. masses --     4.3396                 8.3167                 3.8421
 Frc consts  --     0.0000                 0.0000                 0.0000
 IR Inten    --    11.0601                 9.9353               268.7801
 Raman Activ --     0.0000                 0.0000                 0.0000
 Depolar     --     0.0000                 0.0000                 0.0000
 Atom AN      X      Y      Z        X      Y      Z        X      Y      Z
   1   8    -0.01  -0.00   0.00    -0.14   0.00   0.00     0.18  -0.22  -0.00
   2   7     0.00   0.42  -0.00    -0.12  -0.01   0.00    -0.00   0.05   0.00
   3   6     0.00   0.09  -0.00     0.04   0.00  -0.00    -0.02  -0.10   0.00
   4   6    -0.02  -0.16   0.00    -0.03   0.40  -0.00    -0.05   0.09   0.00
   5   6     0.01  -0.17  -0.00    -0.03  -0.40  -0.00     0.09   0.08  -0.00
   6   6     0.00   0.05  -0.00     0.13   0.00  -0.00    -0.03  -0.22   0.00
   7   6    -0.10  -0.07   0.00    -0.00  -0.38   0.00     0.03   0.17  -0.00
   8   6     0.09  -0.05  -0.00    -0.01   0.37   0.00    -0.02   0.17   0.00
   9   1    -0.05  -0.07  -0.00     0.19   0.22  -0.00    -0.21  -0.09  -0.00
  10   1     0.05  -0.08   0.00     0.19  -0.22   0.00     0.28  -0.12   0.00
  11   1    -0.10   0.02   0.00     0.20  -0.21  -0.00     0.05   0.03  -0.00
  12   1     0.11   0.04   0.00     0.20   0.22  -0.00    -0.09   0.00   0.00
  13   1    -0.54  -0.22   0.00    -0.03  -0.00  -0.00    -0.05  -0.02   0.00
  14   1     0.55  -0.21  -0.00    -0.05   0.01   0.00     0.05  -0.02  -0.00
  15   1     0.05  -0.02  -0.00    -0.03   0.00   0.00    -0.73   0.26   0.00
                     22                     23                     24
                        a                      a                      a 
 Frequencies --  1136.0060              1184.9895              1215.6940
 Red. masses --     2.2844                 1.9269                 7.5772
 Frc consts  --     0.0000                 0.0000                 0.0000
 IR Inten    --    92.2459                 9.0474               506.1256
 Raman Activ --     0.0000                 0.0000                 0.0000
 Depolar     --     0.0000                 0.0000                 0.0000
 Atom AN      X      Y      Z        X      Y      Z        X      Y      Z
   1   8    -0.13   0.11   0.00     0.09   0.01  -0.00     0.30   0.03  -0.00
   2   7    -0.02   0.05  -0.00     0.00   0.00  -0.00     0.14   0.00   0.00
   3   6     0.03  -0.12  -0.00     0.00  -0.02   0.00    -0.23  -0.00   0.00
   4   6    -0.11   0.10   0.00    -0.08  -0.09   0.00     0.06  -0.14  -0.00
   5   6     0.10   0.03  -0.00    -0.06   0.14   0.00     0.06   0.15  -0.00
   6   6     0.08  -0.03  -0.00    -0.13  -0.04   0.00    -0.57  -0.00   0.00
   7   6     0.10   0.06  -0.00     0.07  -0.07  -0.00    -0.10   0.05   0.00
   8   6    -0.09   0.04   0.00     0.02   0.08  -0.00    -0.12  -0.07   0.00
   9   1    -0.32  -0.14   0.00    -0.43  -0.26   0.00     0.33   0.14  -0.00
  10   1     0.34  -0.17   0.00    -0.28   0.19   0.00     0.39  -0.17  -0.00
  11   1     0.37  -0.17  -0.00     0.49  -0.28  -0.00     0.20  -0.12  -0.00
  12   1    -0.50  -0.27   0.00     0.41   0.26  -0.00     0.13   0.09  -0.00
  13   1    -0.06  -0.02   0.00    -0.02  -0.01  -0.00     0.11   0.04  -0.00
  14   1     0.04  -0.01  -0.00    -0.01   0.01  -0.00     0.10  -0.04  -0.00
  15   1     0.34  -0.12  -0.00     0.04  -0.00  -0.00     0.14  -0.03   0.00
                     25                     26                     27
                        a                      a                      a 
 Frequencies --  1281.7029              1329.1853              1344.2826
 Red. masses --     3.5608                 9.4185                11.3866
 Frc consts  --     0.0000                 0.0000                 0.0000
 IR Inten    --    32.8229                 9.1889                55.2772
 Raman Activ --     0.0000                 0.0000                 0.0000
 Depolar     --     0.0000                 0.0000                 0.0000
 Atom AN      X      Y      Z        X      Y      Z        X      Y      Z
   1   8    -0.06   0.08   0.00    -0.17  -0.02   0.00     0.09  -0.05  -0.00
   2   7     0.00  -0.08  -0.00     0.24  -0.00  -0.00    -0.04  -0.04   0.00
   3   6     0.00   0.28  -0.00    -0.50   0.08  -0.00     0.09   0.44   0.00
   4   6     0.09   0.08   0.00    -0.32  -0.05   0.00    -0.26  -0.21   0.00
   5   6    -0.11   0.07  -0.00    -0.18  -0.04   0.00     0.37  -0.21  -0.00
   6   6     0.04  -0.19  -0.00     0.37   0.10  -0.00    -0.09   0.43   0.00
   7   6     0.15  -0.10  -0.00     0.22   0.12  -0.00     0.26  -0.21  -0.00
   8   6    -0.15  -0.12   0.00     0.10  -0.18  -0.00    -0.32  -0.14   0.00
   9   1    -0.38  -0.21   0.00     0.06   0.08   0.00    -0.03  -0.04   0.00
  10   1     0.41  -0.23  -0.00     0.04  -0.07  -0.00    -0.00   0.01  -0.00
  11   1    -0.37   0.20   0.00     0.15  -0.01  -0.00     0.03  -0.04  -0.00
  12   1     0.32   0.18  -0.00     0.12  -0.01  -0.00    -0.09  -0.03   0.00
  13   1     0.09   0.03  -0.00     0.29   0.13   0.00    -0.01  -0.00  -0.00
  14   1    -0.08   0.03   0.00     0.28  -0.12   0.00    -0.12   0.06   0.00
  15   1     0.18  -0.06  -0.00    -0.09   0.02   0.00    -0.16   0.06   0.00
                     28                     29                     30
                        a                      a                      a 
 Frequencies --  1435.0579              1443.3434              1507.4971
 Red. masses --    10.0003                 4.3311                10.1067
 Frc consts  --     0.0000                 0.0000                 0.0000
 IR Inten    --    51.1279                35.5216               706.2233
 Raman Activ --     0.0000                 0.0000                 0.0000
 Depolar     --     0.0000                 0.0000                 0.0000
 Atom AN      X      Y      Z        X      Y      Z        X      Y      Z
   1   8    -0.04   0.08   0.00     0.05   0.01  -0.00     0.06   0.01  -0.00
   2   7     0.03   0.10   0.00    -0.36   0.01  -0.00     0.31   0.00   0.00
   3   6     0.02  -0.38   0.00     0.03  -0.03  -0.00    -0.52  -0.01   0.00
   4   6    -0.38   0.08   0.00     0.12   0.12   0.00     0.10   0.19  -0.00
   5   6     0.33   0.12  -0.00     0.20  -0.10  -0.00     0.10  -0.19  -0.00
   6   6     0.02  -0.31  -0.00    -0.17  -0.04   0.00    -0.35  -0.02   0.00
   7   6     0.37   0.08  -0.00     0.04  -0.11   0.00     0.27  -0.20  -0.00
   8   6    -0.37   0.05   0.00    -0.04   0.13   0.00     0.26   0.22  -0.00
   9   1     0.13   0.16  -0.00    -0.12  -0.06   0.00    -0.18  -0.06  -0.00
  10   1    -0.08   0.14   0.00    -0.14   0.08  -0.00    -0.18   0.06   0.00
  11   1    -0.12   0.15  -0.00    -0.12   0.04   0.00    -0.19   0.08   0.00
  12   1     0.12   0.16   0.00    -0.09  -0.01  -0.00    -0.17  -0.08   0.00
  13   1    -0.13  -0.06   0.00     0.47   0.31   0.00    -0.10  -0.10  -0.00
  14   1     0.03   0.01  -0.00     0.49  -0.31   0.00    -0.10   0.10  -0.00
  15   1     0.13  -0.04  -0.00     0.04  -0.01  -0.00     0.05  -0.02   0.00
                     31                     32                     33
                        a                      a                      a 
 Frequencies --  1577.9182              1633.0530              3058.4573
 Red. masses --    11.5558                11.6169                 1.7873
 Frc consts  --     0.0000                 0.0000                 0.0000
 IR Inten    --     9.2763                65.0565                82.9296
 Raman Activ --     0.0000                 0.0000                 0.0000
 Depolar     --     0.0000                 0.0000                 0.0000
 Atom AN      X      Y      Z        X      Y      Z        X      Y      Z
   1   8    -0.03   0.05   0.00     0.05  -0.00  -0.00     0.00   0.00  -0.00
   2   7     0.00  -0.05  -0.00    -0.12  -0.00  -0.00    -0.00  -0.00   0.00
   3   6     0.00   0.49  -0.00     0.36   0.01  -0.00    -0.00   0.00   0.00
   4   6    -0.16  -0.28   0.00    -0.41  -0.13   0.00    -0.05   0.09   0.00
   5   6     0.14  -0.27  -0.00    -0.43   0.12   0.00     0.00   0.00  -0.00
   6   6     0.01  -0.55  -0.00    -0.27   0.01   0.00    -0.01  -0.00   0.00
   7   6    -0.12   0.30   0.00     0.40  -0.13  -0.00    -0.12  -0.21   0.00
   8   6     0.12   0.30  -0.00     0.41   0.12  -0.00     0.01  -0.01  -0.00
   9   1     0.09   0.00   0.00     0.07   0.06  -0.00     0.19  -0.33  -0.00
  10   1    -0.08  -0.00  -0.00     0.08  -0.07  -0.00    -0.01  -0.02   0.00
  11   1     0.08   0.02   0.00    -0.07   0.06   0.00     0.43   0.77  -0.00
  12   1    -0.07   0.02  -0.00    -0.07  -0.07   0.00    -0.03   0.05   0.00
  13   1     0.05   0.02  -0.00     0.02   0.03   0.00     0.00   0.00  -0.00
  14   1    -0.05   0.02   0.00     0.02  -0.03   0.00    -0.00   0.00  -0.00
  15   1     0.10  -0.04  -0.00     0.01  -0.00  -0.00     0.00  -0.00   0.00
                     34                     35                     36
                        a                      a                      a 
 Frequencies --  3072.9297              3078.3785              3093.9946
 Red. masses --     1.8062                 1.8407                 1.8669
 Frc consts  --     0.0000                 0.0000                 0.0000
 IR Inten    --   139.6314               127.0597                80.5668
 Raman Activ --     0.0000                 0.0000                 0.0000
 Depolar     --     0.0000                 0.0000                 0.0000
 Atom AN      X      Y      Z        X      Y      Z        X      Y      Z
   1   8     0.00  -0.00  -0.00    -0.00  -0.00   0.00     0.00  -0.00  -0.00
   2   7    -0.00   0.00   0.00     0.00  -0.00  -0.00    -0.00   0.00   0.00
   3   6    -0.01  -0.00   0.00    -0.01  -0.00   0.00     0.01  -0.00  -0.00
   4   6     0.05  -0.09  -0.00    -0.11   0.20   0.00     0.02  -0.03  -0.00
   5   6    -0.11  -0.20   0.00    -0.04  -0.08   0.00     0.05   0.09  -0.00
   6   6    -0.01   0.01   0.00     0.00  -0.00  -0.00    -0.01   0.00   0.00
   7   6    -0.03  -0.05   0.00     0.05   0.09  -0.00    -0.01  -0.03   0.00
   8   6    -0.03   0.06   0.00    -0.04   0.07   0.00    -0.13   0.22   0.00
   9   1    -0.18   0.31   0.00     0.39  -0.69  -0.00    -0.07   0.12   0.00
  10   1     0.41   0.73  -0.00     0.15   0.28  -0.00    -0.17  -0.31   0.00
  11   1     0.09   0.17  -0.00    -0.15  -0.28   0.00     0.05   0.10  -0.00
  12   1     0.13  -0.22  -0.00     0.15  -0.25  -0.00     0.45  -0.75  -0.00
  13   1     0.00  -0.00  -0.00     0.00   0.00   0.00    -0.00   0.00  -0.00
  14   1     0.00  -0.00  -0.00     0.00   0.00  -0.00    -0.00  -0.00  -0.00
  15   1     0.00   0.00   0.00     0.00   0.00   0.00     0.00   0.01   0.00
                     37                     38                     39
                        a                      a                      a 
 Frequencies --  3476.6000              3529.0715              3599.2240
 Red. masses --     1.8661                 1.4179                 2.2092
 Frc consts  --     0.0000                 0.0000                 0.0000
 IR Inten    --   124.9938                71.9549                22.6813
 Raman Activ --     0.0000                 0.0000                 0.0000
 Depolar     --     0.0000                 0.0000                 0.0000
 Atom AN      X      Y      Z        X      Y      Z        X      Y      Z
   1   8     0.09   0.22   0.00     0.00   0.00  -0.00     0.00   0.00   0.00
   2   7     0.00  -0.00   0.00    -0.18   0.00  -0.00     0.00  -0.30  -0.00
   3   6     0.00  -0.00  -0.00    -0.01  -0.00  -0.00     0.00  -0.01  -0.00
   4   6     0.00  -0.00  -0.00     0.00   0.00  -0.00    -0.00   0.00  -0.00
   5   6    -0.00   0.00  -0.00     0.00  -0.00  -0.00     0.00   0.00   0.00
   6   6     0.01   0.01  -0.00    -0.00   0.00   0.00    -0.00   0.00  -0.00
   7   6    -0.00  -0.00  -0.00    -0.00  -0.00   0.00     0.00  -0.00   0.00
   8   6    -0.00   0.00  -0.00    -0.00   0.00   0.00    -0.00  -0.00  -0.00
   9   1    -0.00   0.00  -0.00    -0.00   0.00  -0.00     0.00   0.00   0.00
  10   1     0.00  -0.00   0.00    -0.00  -0.00  -0.00    -0.00   0.00  -0.00
  11   1     0.00  -0.00  -0.00     0.00   0.00   0.00    -0.00   0.00   0.00
  12   1     0.00  -0.01  -0.00     0.00  -0.00  -0.00     0.00  -0.00  -0.00
  13   1    -0.01   0.01  -0.00     0.34  -0.61   0.00    -0.35   0.57  -0.00
  14   1    -0.01  -0.01  -0.00     0.33   0.61   0.00     0.35   0.58   0.00
  15   1    -0.37  -0.90  -0.00    -0.01  -0.01   0.00     0.00  -0.00   0.00
