 Entering Gaussian System
 *********************************************
 Gaussian 98:
 frequency output generated by the xtb code
 *********************************************
                         Standard orientation:
 --------------------------------------------------------------------
  Center     Atomic     Atomic              Coordinates (Angstroms)
  Number     Number      Type              X           Y           Z
 --------------------------------------------------------------------
    1          8             0       -0.116067    0.662034    0.031579
    2          8             0        1.020579   -1.288506   -0.149172
    3          8             0       -1.575638   -1.072890   -0.124103
    4          6             0        1.079005   -0.097035   -0.037255
    5          6             0       -1.319877    0.155265   -0.017749
    6          6             0        2.237787    0.790594    0.045890
    7          6             0       -2.413655    1.117476    0.052097
    8          1             0        3.157444    0.213919    0.053010
    9          1             0        2.163381    1.409949    0.938794
   10          1             0        2.230775    1.475038   -0.803145
   11          1             0       -2.213793    1.872846    0.810590
   12          1             0       -3.358397    0.610246    0.222910
   13          1             0       -2.470171    1.661648   -0.894578
   14          1             0       -0.802925   -1.702075   -0.185721
 --------------------------------------------------------------------
     1 basis functions        1 primitive gaussians
     1 alpha electrons        1 beta electrons

 Harmonic frequencies (cm**-1), IR intensities (km*mol⁻¹),
 Raman scattering activities (A**4/amu), Raman depolarization ratios,
 reduced masses (AMU), force constants (mDyne/A) and normal coordinates:
                      1                      2                      3
                        a                      a                      a 
 Frequencies --    64.5096                83.0429               102.0326
 Red. masses --     1.7190                 9.4295                 5.1827
 Frc consts  --     0.0000                 0.0000                 0.0000
 IR Inten    --     9.9064                16.0460                 0.2288
 Raman Activ --     0.0000                 0.0000                 0.0000
 Depolar     --     0.0000                 0.0000                 0.0000
 Atom AN      X      Y      Z        X      Y      Z        X      Y      Z
   1   8     0.00   0.00   0.09     0.00   0.02  -0.27    -0.00   0.00  -0.08
   2   8    -0.01   0.02  -0.17     0.01   0.03  -0.35     0.01   0.04  -0.38
   3   8     0.01   0.01  -0.02    -0.01  -0.04   0.51    -0.01  -0.03   0.29
   4   6     0.00   0.00   0.00     0.00   0.01  -0.12    -0.00   0.01  -0.06
   5   6     0.01   0.01   0.03    -0.00  -0.00   0.01    -0.00  -0.01   0.04
   6   6     0.01  -0.02   0.11    -0.00  -0.02   0.31    -0.00  -0.02   0.22
   7   6    -0.00   0.00  -0.01     0.00   0.01  -0.17    -0.00   0.00  -0.05
   8   1    -0.00  -0.01   0.09     0.01   0.00  -0.15    -0.02  -0.03   0.51
   9   1    -0.03   0.02   0.01     0.08  -0.29   0.29    -0.25   0.32  -0.18
  10   1     0.05  -0.03   0.01    -0.10   0.26   0.31     0.29  -0.31  -0.19
  11   1     0.22   0.33  -0.40    -0.03   0.01  -0.04    -0.05  -0.05   0.05
  12   1     0.06   0.04   0.48    -0.01   0.01  -0.08    -0.01  -0.00  -0.10
  13   1    -0.35  -0.44  -0.24     0.05   0.01  -0.05     0.08   0.07   0.02
  14   1     0.00   0.01  -0.03    -0.01  -0.02   0.13    -0.00  -0.01   0.06
                      4                      5                      6
                        a                      a                      a 
 Frequencies --   129.8436               205.4956               342.9630
 Red. masses --    12.7330                11.3526                11.2724
 Frc consts  --     0.0000                 0.0000                 0.0000
 IR Inten    --     0.6743                 9.1834                15.0964
 Raman Activ --     0.0000                 0.0000                 0.0000
 Depolar     --     0.0000                 0.0000                 0.0000
 Atom AN      X      Y      Z        X      Y      Z        X      Y      Z
   1   8     0.00   0.07  -0.72     0.01   0.33   0.03     0.02   0.05  -0.00
   2   8    -0.00  -0.03   0.29    -0.40   0.14   0.00    -0.42  -0.05  -0.01
   3   8     0.01   0.01  -0.09     0.40   0.03   0.02     0.44  -0.19  -0.01
   4   6    -0.00   0.01  -0.06    -0.12   0.12   0.01    -0.23  -0.02  -0.00
   5   6     0.00   0.02  -0.15     0.06   0.08   0.01     0.09  -0.12  -0.01
   6   6     0.00  -0.02   0.20     0.22  -0.33  -0.03    -0.36   0.10   0.01
   7   6    -0.01  -0.04   0.41    -0.24  -0.27  -0.03     0.37   0.14   0.01
   8   1    -0.00  -0.02   0.14    -0.01  -0.22  -0.02    -0.06   0.11   0.01
   9   1    -0.06  -0.00   0.05     0.16  -0.09  -0.00    -0.16   0.03   0.00
  10   1     0.07  -0.01   0.06     0.14  -0.09  -0.01    -0.15   0.03   0.00
  11   1     0.09  -0.03   0.12    -0.17  -0.07   0.01     0.22   0.02  -0.01
  12   1     0.03  -0.03   0.23    -0.02  -0.18  -0.04     0.04   0.17   0.02
  13   1    -0.14   0.02   0.15    -0.10  -0.07  -0.00     0.17   0.04   0.00
  14   1     0.00   0.01  -0.07     0.17   0.07   0.00     0.20   0.03  -0.00
                      7                      8                      9
                        a                      a                      a 
 Frequencies --   380.0093               479.5336               531.9044
 Red. masses --    10.7835                11.7070                 8.4314
 Frc consts  --     0.0000                 0.0000                 0.0000
 IR Inten    --     6.9113                23.0681                10.2068
 Raman Activ --     0.0000                 0.0000                 0.0000
 Depolar     --     0.0000                 0.0000                 0.0000
 Atom AN      X      Y      Z        X      Y      Z        X      Y      Z
   1   8     0.19   0.03   0.01     0.28   0.06  -0.00     0.01  -0.01   0.02
   2   8     0.08  -0.38  -0.04    -0.51   0.06   0.01    -0.02   0.03  -0.22
   3   8     0.23   0.34   0.04    -0.37   0.07  -0.01    -0.01  -0.02   0.15
   4   6     0.07  -0.34  -0.02     0.18   0.00  -0.01     0.01  -0.04   0.53
   5   6     0.10   0.31   0.02     0.32  -0.06   0.02     0.01   0.04  -0.54
   6   6    -0.30   0.07   0.01     0.07   0.21   0.02     0.01   0.01   0.01
   7   6    -0.26  -0.06  -0.01     0.18  -0.31  -0.02     0.01  -0.00  -0.00
   8   1     0.02   0.19   0.02     0.09   0.17   0.02     0.02   0.03  -0.14
   9   1    -0.21   0.02  -0.01    -0.07   0.06   0.00     0.20   0.13  -0.08
  10   1    -0.20   0.02   0.00    -0.05   0.06   0.01    -0.21  -0.12  -0.10
  11   1    -0.21   0.00   0.01    -0.05  -0.06  -0.01     0.16  -0.12   0.09
  12   1     0.00  -0.18  -0.02     0.10  -0.19  -0.03     0.05  -0.05   0.14
  13   1    -0.15  -0.03  -0.00     0.01  -0.11  -0.01    -0.23   0.16   0.12
  14   1     0.07   0.10   0.01    -0.25  -0.15  -0.02    -0.01  -0.03   0.17
                     10                     11                     12
                        a                      a                      a 
 Frequencies --   569.6644               662.2754               766.4746
 Red. masses --     8.5484                11.0816                 3.8602
 Frc consts  --     0.0000                 0.0000                 0.0000
 IR Inten    --     3.0995               198.5611               308.1078
 Raman Activ --     0.0000                 0.0000                 0.0000
 Depolar     --     0.0000                 0.0000                 0.0000
 Atom AN      X      Y      Z        X      Y      Z        X      Y      Z
   1   8    -0.00   0.04  -0.37     0.12   0.19   0.03    -0.05   0.12  -0.11
   2   8     0.02   0.02  -0.19     0.37   0.08   0.01     0.01  -0.02  -0.06
   3   8    -0.01   0.01  -0.09    -0.14   0.16   0.01     0.01   0.01  -0.32
   4   6    -0.01  -0.04   0.49    -0.45   0.13   0.00     0.04  -0.04   0.03
   5   6    -0.01  -0.03   0.44     0.22   0.03  -0.02     0.01  -0.03   0.25
   6   6    -0.01  -0.01   0.04    -0.38  -0.22  -0.02     0.00  -0.02   0.02
   7   6     0.01  -0.00   0.03     0.27  -0.23  -0.01    -0.02  -0.01   0.02
   8   1     0.01   0.01  -0.13    -0.20  -0.21  -0.02     0.02   0.02  -0.01
   9   1     0.21   0.13  -0.07    -0.00  -0.06   0.00     0.01   0.02  -0.01
  10   1    -0.22  -0.13  -0.10    -0.01  -0.07  -0.01    -0.05  -0.02  -0.01
  11   1    -0.15   0.12  -0.08     0.02  -0.05  -0.01     0.01   0.01  -0.01
  12   1    -0.04   0.04  -0.12     0.11  -0.14  -0.01    -0.02   0.04   0.01
  13   1     0.22  -0.16  -0.10     0.04  -0.07  -0.00     0.04  -0.02  -0.00
  14   1     0.00   0.04  -0.28    -0.16  -0.10   0.01    -0.03  -0.13   0.87
                     13                     14                     15
                        a                      a                      a 
 Frequencies --   789.4810               953.8431               969.8325
 Red. masses --    12.9274                 7.4536                 7.0094
 Frc consts  --     0.0000                 0.0000                 0.0000
 IR Inten    --   272.8365               215.6760               254.7531
 Raman Activ --     0.0000                 0.0000                 0.0000
 Depolar     --     0.0000                 0.0000                 0.0000
 Atom AN      X      Y      Z        X      Y      Z        X      Y      Z
   1   8    -0.36   0.70   0.08    -0.30  -0.02   0.03     0.32   0.09   0.06
   2   8     0.12  -0.14  -0.00     0.01  -0.09  -0.01     0.00  -0.12  -0.02
   3   8    -0.04  -0.15   0.04    -0.14   0.24   0.04     0.06  -0.05   0.04
   4   6     0.27  -0.21  -0.03     0.04  -0.04   0.01    -0.17  -0.03   0.07
   5   6     0.05  -0.07  -0.05    -0.17   0.13  -0.21    -0.03  -0.00  -0.36
   6   6     0.01  -0.15  -0.01     0.10   0.05  -0.01     0.03   0.15  -0.05
   7   6     0.03  -0.04  -0.01     0.29  -0.36   0.17    -0.28  -0.03   0.31
   8   1     0.10   0.11   0.01     0.05   0.04   0.01    -0.04  -0.04   0.03
   9   1    -0.13  -0.03  -0.02     0.01   0.01  -0.00     0.05  -0.02   0.03
  10   1    -0.12  -0.02   0.01     0.03   0.03   0.01     0.14   0.06   0.01
  11   1     0.12  -0.04  -0.00     0.06   0.02  -0.08    -0.07   0.18  -0.11
  12   1    -0.05   0.11   0.02     0.03  -0.05  -0.10    -0.26   0.28  -0.12
  13   1     0.08  -0.00   0.00     0.32  -0.22  -0.05     0.37  -0.21  -0.08
  14   1    -0.15  -0.16  -0.16     0.31   0.43   0.12    -0.16  -0.22   0.06
                     16                     17                     18
                        a                      a                      a 
 Frequencies --   978.5937               980.8866               999.6867
 Red. masses --     7.2005                 6.2036                 7.5661
 Frc consts  --     0.0000                 0.0000                 0.0000
 IR Inten    --   124.4648                74.9444               144.4537
 Raman Activ --     0.0000                 0.0000                 0.0000
 Depolar     --     0.0000                 0.0000                 0.0000
 Atom AN      X      Y      Z        X      Y      Z        X      Y      Z
   1   8     0.14   0.13  -0.03    -0.08   0.00  -0.09    -0.39  -0.01   0.01
   2   8     0.01  -0.27  -0.03    -0.00   0.00  -0.11    -0.05  -0.26  -0.01
   3   8    -0.03   0.16  -0.01     0.01  -0.00  -0.02     0.17   0.04   0.01
   4   6    -0.21  -0.09   0.01     0.01  -0.06   0.50    -0.05  -0.16  -0.07
   5   6    -0.12  -0.00   0.25     0.02   0.00   0.06     0.10   0.04  -0.03
   6   6     0.11   0.29   0.02    -0.00   0.05  -0.42     0.03   0.37   0.08
   7   6    -0.10  -0.29  -0.24     0.06   0.04  -0.03     0.19   0.14   0.04
   8   1    -0.04  -0.05  -0.00    -0.04  -0.04   0.21    -0.16  -0.20  -0.05
   9   1     0.19   0.06   0.03    -0.34  -0.29   0.09     0.36   0.12   0.03
  10   1     0.19   0.06  -0.01     0.40   0.30   0.14     0.26   0.03  -0.03
  11   1     0.45  -0.25  -0.00    -0.03  -0.01   0.02    -0.20   0.07   0.04
  12   1    -0.14   0.21   0.14     0.06  -0.07   0.01     0.17  -0.21  -0.04
  13   1    -0.03   0.19   0.09    -0.06   0.02   0.01    -0.07  -0.06  -0.03
  14   1     0.00   0.05  -0.08    -0.00  -0.01  -0.00    -0.18  -0.23  -0.01
                     19                     20                     21
                        a                      a                      a 
 Frequencies --  1030.6437              1082.8457              1282.3345
 Red. masses --    10.5468                 7.6427                 7.2024
 Frc consts  --     0.0000                 0.0000                 0.0000
 IR Inten    --   189.0228               556.3728               584.2879
 Raman Activ --     0.0000                 0.0000                 0.0000
 Depolar     --     0.0000                 0.0000                 0.0000
 Atom AN      X      Y      Z        X      Y      Z        X      Y      Z
   1   8    -0.30  -0.36  -0.03     0.11   0.07   0.01     0.18   0.05   0.00
   2   8    -0.07   0.24   0.02    -0.08   0.09   0.01    -0.03   0.05   0.01
   3   8     0.29   0.40   0.04    -0.15  -0.13  -0.01     0.12  -0.07  -0.01
   4   6     0.24   0.02   0.01     0.53  -0.06   0.00     0.17  -0.02  -0.00
   5   6     0.08   0.09  -0.00     0.12  -0.00  -0.01    -0.58   0.19   0.04
   6   6    -0.10  -0.13  -0.02    -0.44   0.07   0.00    -0.03   0.06   0.00
   7   6    -0.08  -0.19  -0.02    -0.11  -0.00   0.00     0.19  -0.18   0.07
   8   1    -0.04  -0.05  -0.00    -0.36  -0.39  -0.04    -0.08  -0.10  -0.00
   9   1    -0.07  -0.04  -0.00     0.16   0.00   0.03    -0.06  -0.12   0.08
  10   1    -0.06  -0.03  -0.00     0.14  -0.01  -0.02    -0.07  -0.11  -0.09
  11   1     0.23  -0.12   0.00     0.04  -0.01  -0.01     0.11   0.25  -0.28
  12   1    -0.12   0.17   0.05    -0.07   0.09   0.02     0.10  -0.21  -0.22
  13   1     0.17  -0.05  -0.01     0.03   0.01   0.00    -0.07   0.22   0.16
  14   1    -0.29  -0.28  -0.05     0.17   0.21   0.03    -0.15  -0.19  -0.03
                     22                     23                     24
                        a                      a                      a 
 Frequencies --  1313.8714              1335.5274              1341.7597
 Red. masses --     3.9147                 2.9381                 1.7799
 Frc consts  --     0.0000                 0.0000                 0.0000
 IR Inten    --   324.0978               109.2998                66.5968
 Raman Activ --     0.0000                 0.0000                 0.0000
 Depolar     --     0.0000                 0.0000                 0.0000
 Atom AN      X      Y      Z        X      Y      Z        X      Y      Z
   1   8    -0.18  -0.08  -0.01    -0.08  -0.01   0.00    -0.04  -0.00  -0.01
   2   8     0.00  -0.00  -0.00     0.01   0.00   0.00     0.00  -0.01   0.00
   3   8    -0.04  -0.02  -0.00    -0.03   0.02   0.00    -0.01   0.06   0.01
   4   6    -0.06  -0.00  -0.00    -0.06  -0.02  -0.01    -0.02  -0.00  -0.00
   5   6     0.37   0.02   0.01     0.17  -0.05  -0.02     0.10  -0.07   0.03
   6   6    -0.01  -0.06  -0.00     0.18   0.30   0.00     0.04   0.06   0.00
   7   6     0.03  -0.24   0.05    -0.02  -0.03  -0.05     0.10   0.04   0.17
   8   1     0.05   0.07  -0.00    -0.08  -0.14   0.04    -0.02  -0.03   0.00
   9   1     0.05   0.09  -0.07    -0.17  -0.47   0.34    -0.04  -0.08   0.06
  10   1     0.06   0.09   0.07    -0.20  -0.42  -0.37    -0.04  -0.08  -0.07
  11   1    -0.17   0.39  -0.37    -0.16   0.03  -0.00     0.20  -0.08   0.06
  12   1    -0.16   0.24  -0.07    -0.03   0.10   0.18    -0.21   0.20  -0.64
  13   1    -0.15   0.43   0.29     0.06   0.08   0.04    -0.54  -0.25  -0.08
  14   1     0.04   0.06  -0.00     0.05   0.06   0.01     0.02   0.04   0.00
                     25                     26                     27
                        a                      a                      a 
 Frequencies --  1373.1775              1379.7081              1390.0773
 Red. masses --     1.5915                 4.3286                 3.3627
 Frc consts  --     0.0000                 0.0000                 0.0000
 IR Inten    --    30.6111               276.1847                28.7640
 Raman Activ --     0.0000                 0.0000                 0.0000
 Depolar     --     0.0000                 0.0000                 0.0000
 Atom AN      X      Y      Z        X      Y      Z        X      Y      Z
   1   8    -0.00   0.00  -0.02     0.10   0.05   0.01    -0.06  -0.02  -0.00
   2   8     0.00   0.01  -0.00    -0.01  -0.05  -0.01    -0.00  -0.10  -0.01
   3   8    -0.00  -0.00  -0.00     0.06   0.15   0.01    -0.03  -0.04  -0.00
   4   6    -0.01  -0.01   0.05     0.07   0.03   0.01    -0.07   0.04   0.01
   5   6     0.01   0.00  -0.00    -0.28  -0.14  -0.04     0.17   0.02   0.01
   6   6    -0.03   0.00   0.22     0.10   0.00   0.02     0.33   0.09   0.04
   7   6    -0.01   0.00   0.00     0.32  -0.14  -0.09    -0.17   0.07   0.04
   8   1     0.06   0.09  -0.73    -0.13  -0.23  -0.07    -0.24  -0.46  -0.10
   9   1    -0.38   0.05  -0.03    -0.18   0.15  -0.11    -0.41   0.21  -0.16
  10   1     0.46  -0.17  -0.11    -0.13   0.12   0.10    -0.32   0.18   0.13
  11   1     0.01   0.00  -0.00    -0.48  -0.07   0.16     0.22   0.05  -0.09
  12   1     0.00  -0.01   0.00    -0.13   0.40   0.20     0.06  -0.19  -0.09
  13   1     0.01  -0.00  -0.00    -0.20  -0.05  -0.01     0.10   0.04   0.01
  14   1     0.00   0.00  -0.00    -0.04  -0.04   0.00     0.02   0.02  -0.00
                     28                     29                     30
                        a                      a                      a 
 Frequencies --  1489.7547              1762.7139              2929.9111
 Red. masses --    11.9265                13.2286                 1.8649
 Frc consts  --     0.0000                 0.0000                 0.0000
 IR Inten    --   479.6231               820.9535               805.8555
 Raman Activ --     0.0000                 0.0000                 0.0000
 Depolar     --     0.0000                 0.0000                 0.0000
 Atom AN      X      Y      Z        X      Y      Z        X      Y      Z
   1   8     0.04   0.10   0.01    -0.06  -0.03  -0.00     0.01   0.00   0.00
   2   8     0.00  -0.07  -0.01    -0.04  -0.58  -0.05    -0.01  -0.01  -0.00
   3   8     0.06   0.47   0.04    -0.00  -0.03  -0.00     0.19  -0.14  -0.01
   4   6     0.08   0.06   0.01     0.18   0.76   0.07    -0.01   0.02   0.00
   5   6    -0.09  -0.78  -0.06     0.03   0.09   0.01    -0.00  -0.03  -0.00
   6   6    -0.06  -0.01  -0.00    -0.09  -0.07  -0.01     0.00  -0.00  -0.00
   7   6    -0.11   0.12   0.04    -0.00  -0.01  -0.00    -0.01  -0.00   0.01
   8   1    -0.00   0.01   0.00     0.02   0.04   0.01    -0.00   0.00  -0.00
   9   1     0.02  -0.01   0.01    -0.01  -0.05   0.04    -0.00  -0.00  -0.00
  10   1     0.02  -0.01  -0.01    -0.01  -0.04  -0.04    -0.00  -0.00   0.00
  11   1     0.03   0.14  -0.12     0.01  -0.01   0.00     0.00   0.00   0.01
  12   1     0.07  -0.18  -0.05    -0.01   0.01   0.00     0.00   0.00   0.00
  13   1     0.02   0.11   0.06     0.00  -0.00  -0.00    -0.00   0.03  -0.07
  14   1     0.02   0.07   0.00    -0.02  -0.06  -0.01    -0.71   0.66   0.06
                     31                     32                     33
                        a                      a                      a 
 Frequencies --  2968.5534              2999.4710              3025.7900
 Red. masses --     1.8312                 1.8920                 1.5022
 Frc consts  --     0.0000                 0.0000                 0.0000
 IR Inten    --    62.3269                25.5977                18.9089
 Raman Activ --     0.0000                 0.0000                 0.0000
 Depolar     --     0.0000                 0.0000                 0.0000
 Atom AN      X      Y      Z        X      Y      Z        X      Y      Z
   1   8     0.00   0.00  -0.00     0.00  -0.00  -0.00    -0.00   0.00  -0.00
   2   8    -0.00  -0.00  -0.00     0.00   0.00   0.00    -0.00  -0.01  -0.00
   3   8     0.01  -0.01  -0.00     0.00  -0.00   0.00    -0.00   0.00   0.00
   4   6    -0.00   0.00   0.00    -0.00  -0.01   0.01     0.01   0.01   0.00
   5   6    -0.01   0.01  -0.01    -0.00  -0.00  -0.00     0.00  -0.00  -0.00
   6   6     0.00  -0.00   0.00    -0.01  -0.08   0.27     0.01   0.18   0.10
   7   6    -0.01   0.08  -0.26     0.00  -0.00   0.00    -0.00  -0.03  -0.02
   8   1    -0.00   0.00   0.00     0.00  -0.01   0.03    -0.09   0.07   0.01
   9   1    -0.00   0.00   0.00     0.03  -0.26  -0.33     0.06  -0.47  -0.71
  10   1    -0.00   0.01  -0.01    -0.00   0.55  -0.66     0.00  -0.25   0.36
  11   1     0.04   0.17   0.13    -0.00  -0.00  -0.00     0.03   0.10   0.10
  12   1    -0.03  -0.01  -0.02     0.00   0.00   0.00    -0.02  -0.01   0.00
  13   1     0.05  -0.47   0.80    -0.00   0.00  -0.01    -0.00   0.01  -0.03
  14   1    -0.05   0.05   0.00    -0.00   0.00   0.00     0.01  -0.00  -0.00
                     34                     35                     36
                        a                      a                      a 
 Frequencies --  3031.5745              3077.0091              3078.1919
 Red. masses --     1.5506                 1.8377                 1.8100
 Frc consts  --     0.0000                 0.0000                 0.0000
 IR Inten    --    46.2606                15.7995                 1.1229
 Raman Activ --     0.0000                 0.0000                 0.0000
 Depolar     --     0.0000                 0.0000                 0.0000
 Atom AN      X      Y      Z        X      Y      Z        X      Y      Z
   1   8    -0.00  -0.00  -0.00     0.00   0.00   0.00     0.00  -0.00  -0.00
   2   8    -0.00   0.00   0.00     0.00   0.00   0.00     0.00  -0.00  -0.00
   3   8    -0.00   0.01   0.00    -0.00   0.00   0.00     0.00  -0.00  -0.00
   4   6     0.00  -0.00  -0.00    -0.00  -0.00   0.00    -0.01   0.00   0.00
   5   6     0.00  -0.01  -0.00    -0.01  -0.00   0.00    -0.00   0.00   0.00
   6   6    -0.00  -0.03  -0.01     0.01  -0.00  -0.00    -0.22   0.16   0.01
   7   6    -0.01  -0.18  -0.12    -0.23  -0.15   0.01    -0.01  -0.00   0.00
   8   1     0.02  -0.01  -0.00    -0.02   0.01  -0.00     0.81  -0.51   0.01
   9   1    -0.01   0.07   0.11     0.00   0.00   0.00    -0.01  -0.03  -0.07
  10   1    -0.00   0.04  -0.06     0.00   0.00  -0.00    -0.02  -0.01   0.03
  11   1     0.17   0.63   0.64     0.01   0.09   0.11    -0.00   0.00   0.00
  12   1    -0.14  -0.09   0.01     0.83   0.44  -0.15     0.02   0.01  -0.00
  13   1    -0.02   0.10  -0.22    -0.02  -0.02   0.00    -0.00  -0.00   0.00
  14   1     0.02  -0.02  -0.00     0.00  -0.00  -0.00    -0.01   0.00   0.00
