14
 energy: -23.987784338868 gnorm: 0.000461670598 xtb: 6.7.1 (edcfbbe)
O           -0.11607041894924        0.66203321650064        0.03158021482398
O            1.02058595997160       -1.28849985655167       -0.14917111915266
O           -1.57563175241299       -1.07289821623493       -0.12411073474977
C            1.07900601299502       -0.09702932487021       -0.03725120928476
C           -1.31987749601436        0.15525806133257       -0.01775319226968
C            2.23778227722408        0.79060549529748        0.04589876903604
C           -2.41366032127768        1.11746333530338        0.05209067856849
H            3.15744274892860        0.21393503845402        0.05302178027508
H            2.16336966920464        1.40995854726703        0.93880418800234
H            2.23077036012056        1.47505058753948       -0.80313460945371
H           -2.21380570399557        1.87283303201768        0.81058586850716
H           -3.35840047490046        0.61022790025102        0.22289937381838
H           -2.47017655194939        1.66163609593296       -0.89458348660321
H           -0.80291530904458       -1.70207891223911       -0.18572652141785
