29
energy: -23.983019683491 gnorm: 0.000838318560 xtb: 6.7.1 (edcfbbe)
O      4.0060540141    3.6259124316   -2.9731768327
O      4.2887401442    1.4685974077   -3.2815423394
O      3.3152812480    5.8381932323   -3.1404534371
C      4.5368900011    2.4582414931   -2.6051356921
C      4.1168351258    4.9497773825   -2.3917722945
C      5.4111758824    2.2017577524   -1.4070744443
C      5.5497256007    5.4950128376   -2.5578348242
H      4.8066117694    1.7095405511   -0.6158466581
H      5.8975934756    3.0775602445   -0.9413338212
H      6.2440683563    1.5172279313   -1.6769010633
H      5.6266510480    6.5617406175   -2.2511737900
H      6.3211346126    4.9569906150   -1.9794025041
H      2.9412726598    9.1739289337    3.5055378945
H      2.3591595548    5.5750274774   -3.0781771589
O      2.9692612191    9.3211334346    2.5266273989
N      3.6326950903    4.9614521025   -0.9978612016
C      3.5395850350    6.2655359795   -0.3397797938
C      4.6194447183    6.4714458243    0.7340558629
C      2.1375093127    6.4507500952    0.2510014289
C      3.0847154214    8.0398995226    1.9831107858
C      4.4807292350    7.8479912539    1.3840899341
C      1.9975120525    7.8156134506    0.9283882137
H      5.6316084805    6.3769992949    0.2881495976
H      1.3583470058    6.3536879572   -0.5360973953
H      5.2440252999    7.9493842795    2.1831931174
H      0.9875021829    7.9128366071    1.3800909464
H      5.8613677703    5.4380175363   -3.6224907923
H      3.9801802111    4.2136483877   -0.3636428760
H      3.4419380745    3.5817318614   -3.8215379586
