      -----------------------------------------------------------      
     |                   =====================                   |     
     |                           x T B                           |     
     |                   =====================                   |     
     |                         S. Grimme                         |     
     |          Mulliken Center for Theoretical Chemistry        |     
     |                    University of Bonn                     |     
      -----------------------------------------------------------      

   * xtb version 6.7.1 (edcfbbe) compiled by 'conda@c0858423619e' on 2025-09-04

   xtb is free software: you can redistribute it and/or modify it under
   the terms of the GNU Lesser General Public License as published by
   the Free Software Foundation, either version 3 of the License, or
   (at your option) any later version.
   
   xtb is distributed in the hope that it will be useful,
   but WITHOUT ANY WARRANTY; without even the implied warranty of
   MERCHANTABILITY or FITNESS FOR A PARTICULAR PURPOSE.  See the
   GNU Lesser General Public License for more details.
   
   Cite this work as:
   * C. Bannwarth, E. Caldeweyher, S. Ehlert, A. Hansen, P. Pracht,
     J. Seibert, S. Spicher, S. Grimme, WIREs Comput. Mol. Sci., 2020, 11,
     e01493. DOI: 10.1002/wcms.1493
   
   for GFN2-xTB:
   * C. Bannwarth, S. Ehlert and S. Grimme., J. Chem. Theory Comput., 2019,
     15, 1652-1671. DOI: 10.1021/acs.jctc.8b01176
   for GFN1-xTB:
   * S. Grimme, C. Bannwarth, P. Shushkov, J. Chem. Theory Comput., 2017,
     13, 1989-2009. DOI: 10.1021/acs.jctc.7b00118
   for GFN0-xTB:
   * P. Pracht, E. Caldeweyher, S. Ehlert, S. Grimme, ChemRxiv, 2019, preprint.
     DOI: 10.26434/chemrxiv.8326202.v1
   for GFN-FF:
   * S. Spicher and S. Grimme, Angew. Chem. Int. Ed., 2020, 59, 15665-15673.
     DOI: 10.1002/anie.202004239
   
   for ALPB and GBSA implicit solvation:
   * S. Ehlert, M. Stahn, S. Spicher, S. Grimme, J. Chem. Theory Comput.,
     2021, 17, 4250-4261. DOI: 10.1021/acs.jctc.1c00471
   
   for ddCOSMO and CPCM-X implicit solvation:
   * M. Stahn, S. Ehlert, S. Grimme, J. Phys. Chem. A,
     2023, XX, XXXX-XXXX. DOI: 10.1021/acs.jpca.3c04382
   
   for DFT-D4:
   * E. Caldeweyher, C. Bannwarth and S. Grimme, J. Chem. Phys., 2017,
     147, 034112. DOI: 10.1063/1.4993215
   * E. Caldeweyher, S. Ehlert, A. Hansen, H. Neugebauer, S. Spicher,
     C. Bannwarth and S. Grimme, J. Chem. Phys., 2019, 150, 154122.
     DOI: 10.1063/1.5090222
   * E. Caldeweyher, J.-M. Mewes, S. Ehlert and S. Grimme, Phys. Chem. Chem. Phys.
     2020, 22, 8499-8512. DOI: 10.1039/D0CP00502A
   
   for sTDA-xTB:
   * S. Grimme and C. Bannwarth, J. Chem. Phys., 2016, 145, 054103.
     DOI: 10.1063/1.4959605
   
   in the mass-spec context:
   * V. Asgeirsson, C. Bauer and S. Grimme, Chem. Sci., 2017, 8, 4879.
     DOI: 10.1039/c7sc00601b
   * J. Koopman and S. Grimme, ACS Omega 2019, 4, 12, 15120-15133.
     DOI: 10.1021/acsomega.9b02011
   
   for metadynamics refer to:
   * S. Grimme, J. Chem. Theory Comput., 2019, 155, 2847-2862
     DOI: 10.1021/acs.jctc.9b00143
   
   for SPH calculations refer to:
   * S. Spicher and S. Grimme, J. Chem. Theory Comput., 2021, 17, 1701-1714
     DOI: 10.1021/acs.jctc.0c01306
   
   for ONIOM refer to:
   * C. Plett, A. Katbashev, S. Ehlert, S. Grimme, M. Bursch,
     Phys. Chem. Chem. Phys., 2023, 25, 17860-17868. DOI: 10.1039/D3CP02178E
   
   for DIPRO refer to:
   * J. Kohn, N. Gildemeister, S. Grimme, D. Fazzi, A. Hansen,
     J. Chem. Phys., 2023, just accepted.
   
   for PTB refer to:
   * S. Grimme, M. Mueller, A. Hansen, J. Chem. Phys., 2023, 158, 124111.
     DOI: 10.1063/5.0137838
   
   with help from (in alphabetical order)
   P. Atkinson, C. Bannwarth, F. Bohle, G. Brandenburg, E. Caldeweyher
   M. Checinski, S. Dohm, S. Ehlert, S. Ehrlich, I. Gerasimov, C. Hölzer
   A. Katbashev, J. Kohn, J. Koopman, C. Lavigne, S. Lehtola, F. März, M. Müller,
   F. Musil, H. Neugebauer, J. Pisarek, C. Plett, P. Pracht, F. Pultar,
   J. Seibert, P. Shushkov, S. Spicher, M. Stahn, M. Steiner, T. Strunk,
   J. Stückrath, T. Rose, and J. Unsleber
   
 * started run on 2026/06/09 at 00:47:44.586     
   ID    Z sym.   atoms
    1    8 O      1-3, 15
    2    6 C      4-7, 17-22
    3    1 H      8-14, 23-29
    4    7 N      16

           -------------------------------------------------
          |                Calculation Setup                |
           -------------------------------------------------

          program call               : xtb intento_bien.xyz --opt --alpb water
          hostname                   : fedora
          coordinate file            : intento_bien.xyz
          omp threads                :                    16


           -------------------------------------------------
          |                 G F N 2 - x T B                 |
           -------------------------------------------------

        Reference                      10.1021/acs.jctc.8b01176
      * Hamiltonian:
        H0-scaling (s, p, d)           1.850000    2.230000    2.230000
        zeta-weighting                 0.500000
      * Dispersion:
        s8                             2.700000
        a1                             0.520000
        a2                             5.000000
        s9                             5.000000
      * Repulsion:
        kExp                           1.500000    1.000000
        rExp                           1.000000
      * Coulomb:
        alpha                          2.000000
        third order                    shell-resolved
        anisotropic                    true
        a3                             3.000000
        a5                             4.000000
        cn-shift                       1.200000
        cn-exp                         4.000000
        max-rad                        5.000000

      * Solvation model:               ALPB
        Solvent                        water
        Parameter file                 internal GFN2-xTB/ALPB
        Dielectric constant                8.0200E+01
        Reference state                gsolv [1 M gas/solution]
        Free energy shift                  1.0808E-03 Eh       6.7819E-01 kcal/mol
        Temperature                        2.9815E+02 K
        Density                            1.0000E+00 kg/L
        Solvent mass                       1.8000E+01 g/mol
        Interaction kernel             P16
        Born radius scaling (c1)           1.4744E+00
        Born radii integrator          GBOBC
        Born offset                        0.0000E+00 a0       0.0000E+00 AA
        H-bond correction              true
        Ion screening                  false
        Surface tension                    1.0000E-05 Eh       1.5569E+01 dyn/cm
        Grid points                               230 per atom

          ...................................................
          :                      SETUP                      :
          :.................................................:
          :  # basis functions                  74          :
          :  # atomic orbitals                  74          :
          :  # shells                           44          :
          :  # electrons                        83          :
          :  max. iterations                   250          :
          :  Hamiltonian                  GFN2-xTB          :
          :  restarted?                      false          :
          :  GBSA solvation                   true          :
          :  PC potential                    false          :
          :  electronic temp.          300.0000000     K    :
          :  accuracy                    1.0000000          :
          :  -> integral cutoff          0.2500000E+02      :
          :  -> integral neglect         0.1000000E-07      :
          :  -> SCF convergence          0.1000000E-05 Eh   :
          :  -> wf. convergence          0.1000000E-03 e    :
          :  Broyden damping             0.4000000          :
          :  net charge                          0          :
          :  unpaired electrons                  0          :
          ...................................................

 iter      E             dE          RMSdq      gap      omega  full diag
   1    -47.6279204 -0.476279E+02  0.429E+00    0.13       0.0  T
   2    -47.6429962 -0.150758E-01  0.360E+00    0.69       1.0  T
   3    -47.7493023 -0.106306E+00  0.193E+00    0.08       1.0  T
   4    -47.7603749 -0.110726E-01  0.127E+00    0.08       1.0  T
   5    -47.7624048 -0.202993E-02  0.116E+00    0.15       1.0  T
   6    -47.7883536 -0.259488E-01  0.523E-01    0.03       1.0  T
   7    -47.7848477  0.350590E-02  0.644E-01    0.07       1.0  T
   8    -47.7856027 -0.754994E-03  0.649E-01    0.06       1.0  T
   9    -47.7952450 -0.964230E-02  0.261E-01    0.06       1.0  T
  10    -47.7941028  0.114220E-02  0.269E-01    0.03       1.0  T
  11    -47.7959206 -0.181782E-02  0.127E-01    0.04       1.0  T
  12    -47.7962146 -0.294020E-03  0.904E-02    0.03       1.0  T
  13    -47.7964850 -0.270385E-03  0.113E-02    0.04       1.6  T
  14    -47.7964879 -0.286639E-05  0.219E-03    0.04       8.5  T
  15    -47.7964876  0.261559E-06  0.333E-03    0.04       5.6  T
  16    -47.7964877 -0.814761E-07  0.273E-03    0.04       6.8  T
  17    -47.7964879 -0.193210E-06  0.149E-03    0.04      12.5  T
  18    -47.7964880 -0.672487E-07  0.350E-04    0.04      53.0  T
  19    -47.7964880 -0.147985E-08  0.268E-04    0.04      69.2  T

   *** convergence criteria satisfied after 19 iterations ***

         #    Occupation            Energy/Eh            Energy/eV
      -------------------------------------------------------------
         1        2.0000           -0.8147021             -22.1692
       ...           ...                  ...                  ...
        36        2.0000           -0.4140204             -11.2661
        37        2.0000           -0.4054300             -11.0323
        38        2.0000           -0.3761912             -10.2367
        39        2.0000           -0.3667774              -9.9805
        40        2.0000           -0.3622947              -9.8585
        41        2.0000           -0.3544724              -9.6457
        42        0.6290           -0.2557200              -6.9585 (HOMO)
        43        0.2856           -0.2543473              -6.9211 (LUMO)
        44        0.0855           -0.2529665              -6.8836
        45                         -0.1891402              -5.1468
        46                         -0.1284456              -3.4952
        47                         -0.0208212              -0.5666
       ...                                ...                  ...
        74                          0.5385995              14.6560
      -------------------------------------------------------------
                  HL-Gap            0.0013727 Eh            0.0374 eV
             Fermi-level           -0.2801574 Eh           -7.6235 eV

 SCC (total)                   0 d,  0 h,  0 min,  0.354 sec
 SCC setup                      ...        0 min,  0.006 sec (  1.766%)
 Dispersion                     ...        0 min,  0.001 sec (  0.388%)
 classical contributions        ...        0 min,  0.001 sec (  0.274%)
 integral evaluation            ...        0 min,  0.010 sec (  2.865%)
 iterations                     ...        0 min,  0.322 sec ( 90.978%)
 molecular gradient             ...        0 min,  0.011 sec (  3.202%)
 printout                       ...        0 min,  0.002 sec (  0.514%)

         :::::::::::::::::::::::::::::::::::::::::::::::::::::
         ::                     SUMMARY                     ::
         :::::::::::::::::::::::::::::::::::::::::::::::::::::
         :: total energy             -47.408969807402 Eh    ::
         :: total w/o Gsasa/hb       -47.392732458244 Eh    ::
         :: gradient norm              0.330106049538 Eh/a0 ::
         :: HOMO-LUMO gap              0.037353583744 eV    ::
         ::.................................................::
         :: SCC energy               -47.796359058172 Eh    ::
         :: -> isotropic ES            0.176633752796 Eh    ::
         :: -> anisotropic ES          0.018034418873 Eh    ::
         :: -> anisotropic XC          0.011840715818 Eh    ::
         :: -> dispersion             -0.025388574575 Eh    ::
         :: -> Gsolv                  -0.066302325298 Eh    ::
         ::    -> Gelec               -0.050064976140 Eh    ::
         ::    -> Gsasa                0.002410527953 Eh    ::
         ::    -> Ghb                 -0.019728636810 Eh    ::
         ::    -> Gshift               0.001080759698 Eh    ::
         :: repulsion energy           0.387389250770 Eh    ::
         :: add. restraining           0.000000000000 Eh    ::
         :: total charge               0.000000000000 e     ::
         :::::::::::::::::::::::::::::::::::::::::::::::::::::

      ----------------------------------------------------------- 
     |                   =====================                   |
     |                        A N C O P T                        |
     |                   =====================                   |
     |               Approximate Normal Coordinate               |
     |                Rational Function Optimizer                |
      ----------------------------------------------------------- 
      ----------------------------------------------------------- 
     |                   =====================                   |
     |                        A N C O P T                        |
     |                   =====================                   |
     |               Approximate Normal Coordinate               |
     |                Rational Function Optimizer                |
      ----------------------------------------------------------- 

          ...................................................
          :                      SETUP                      :
          :.................................................:
          :   optimization level            normal          :
          :   max. optcycles                   200          :
          :   ANC micro-cycles                  20          :
          :   degrees of freedom                81          :
          :.................................................:
          :   RF solver                   davidson          :
          :   write xtbopt.log                true          :
          :   linear?                        false          :
          :   energy convergence         0.5000000E-05 Eh   :
          :   grad. convergence          0.1000000E-02 Eh/α :
          :   maxmium RF displ.          1.0000000          :
          :   Hlow (freq-cutoff)         0.1000000E-01      :
          :   Hmax (freq-cutoff)         5.0000000          :
          :   S6 in model hess.         20.0000000          :
          ...................................................

generating ANC from exact Hessian ...
Using Lindh-Hessian (1995)
 Shifting diagonal of input Hessian by    9.3137102229363319E-003
 Lowest  eigenvalues of input Hessian
    0.000000    0.000000    0.000000    0.000000    0.000000    0.000000
    0.010000    0.010031    0.010491    0.011615    0.012712    0.014566
    0.015721    0.016630    0.018876    0.019555    0.020565    0.022107
 Highest eigenvalues
    1.393330    1.401713    1.512614    1.606602    1.952134    2.312548


........................................................................
.............................. CYCLE    1 ..............................
........................................................................

 iter      E             dE          RMSdq      gap      omega  full diag
   1    -47.7964880 -0.477965E+02  0.434E-05    0.04       0.0  T
   2    -47.7964880  0.155067E-07  0.666E-04    0.04      27.9  T
   3    -47.7964880 -0.155626E-07  0.200E-05    0.04     929.8  T
     SCC iter.                  ...        0 min,  0.005 sec
     gradient                   ...        0 min,  0.009 sec
 * total energy  :   -47.4089698 Eh     change       -0.2370086E-08 Eh
   gradient norm :     0.3301169 Eh/α   predicted     0.0000000E+00 (-100.00%)
   displ. norm   :     0.5303191 α      lambda       -0.1594692E+00
   maximum displ.:     0.4141331 α      in ANC's #54, #30, #48, ...

........................................................................
.............................. CYCLE    2 ..............................
........................................................................

 iter      E             dE          RMSdq      gap      omega  full diag
   1    -47.9262461 -0.479262E+02  0.156E+00    1.07       0.0  T
   2    -47.8783980  0.478481E-01  0.191E+00    0.11       1.0  T
   3    -47.9742286 -0.958306E-01  0.652E-01    0.03       1.0  T
   4    -47.9657037  0.852492E-02  0.737E-01    0.11       1.0  T
   5    -47.9267629  0.389408E-01  0.131E+00    0.06       1.0  T
   6    -47.9403170 -0.135542E-01  0.110E+00    0.06       1.0  T
   7    -47.9799462 -0.396292E-01  0.179E-01    0.06       1.0  T
   8    -47.9568955  0.230507E-01  0.848E-01    0.16       1.0  T
   9    -47.9796203 -0.227248E-01  0.164E-01    0.08       1.0  T
  10    -47.9803001 -0.679742E-03  0.732E-02    0.07       1.0  T
  11    -47.9785757  0.172440E-02  0.237E-01    0.08       1.0  T
  12    -47.9804087 -0.183307E-02  0.329E-02    0.07       1.0  T
  13    -47.9804388 -0.300650E-04  0.114E-02    0.07       1.6  T
  14    -47.9804373  0.146024E-05  0.131E-02    0.07       1.4  T
  15    -47.9804400 -0.268961E-05  0.952E-03    0.07       2.0  T
  16    -47.9804430 -0.301499E-05  0.787E-04    0.07      23.6  T
  17    -47.9804430  0.164974E-07  0.103E-03    0.07      18.1  T
  18    -47.9804430 -0.109539E-07  0.870E-04    0.07      21.4  T
  19    -47.9804431 -0.203719E-07  0.360E-04    0.07      51.5  T
     SCC iter.                  ...        0 min,  0.070 sec
     gradient                   ...        0 min,  0.011 sec
 * total energy  :   -47.5326117 Eh     change       -0.1236419E+00 Eh
   gradient norm :     0.1991368 Eh/α   predicted    -0.1021620E+00 ( -17.37%)
   displ. norm   :     0.5760947 α      lambda       -0.1050465E+00
   maximum displ.:     0.4809678 α      in ANC's #54, #57, #48, ...

........................................................................
.............................. CYCLE    3 ..............................
........................................................................

 iter      E             dE          RMSdq      gap      omega  full diag
   1    -48.1071552 -0.481072E+02  0.991E-01    1.35       0.0  T
   2    -47.9964129  0.110742E+00  0.213E+00    0.29       1.0  T
   3    -48.1192117 -0.122799E+00  0.749E-01    0.51       1.0  T
   4    -48.1336123 -0.144006E-01  0.215E-01    0.08       1.0  T
   5    -48.1112190  0.223933E-01  0.835E-01    0.07       1.0  T
   6    -48.1249197 -0.137007E-01  0.553E-01    0.22       1.0  T
   7    -48.1293208 -0.440118E-02  0.395E-01    0.15       1.0  T
   8    -48.1337230 -0.440214E-02  0.998E-02    0.10       1.0  T
   9    -48.1339580 -0.235031E-03  0.441E-02    0.10       1.0  T
  10    -48.1340070 -0.489786E-04  0.171E-02    0.09       1.1  T
  11    -48.1340161 -0.905876E-05  0.172E-03    0.09      10.8  T
  12    -48.1340123  0.380010E-05  0.113E-02    0.09       1.6  T
  13    -48.1340160 -0.376858E-05  0.174E-03    0.09      10.7  T
  14    -48.1340161 -0.722269E-07  0.823E-04    0.09      22.6  T
  15    -48.1340161 -0.184936E-07  0.264E-04    0.09      70.3  T
     SCC iter.                  ...        0 min,  0.610 sec
     gradient                   ...        0 min,  0.036 sec
 * total energy  :   -47.5979752 Eh     change       -0.6536351E-01 Eh
   gradient norm :     0.0868988 Eh/α   predicted    -0.6995506E-01 (   7.02%)
   displ. norm   :     0.3896839 α      lambda       -0.2289818E-01
   maximum displ.:     0.1926440 α      in ANC's #54, #30, #26, ...

........................................................................
.............................. CYCLE    4 ..............................
........................................................................

 iter      E             dE          RMSdq      gap      omega  full diag
   1    -48.1289585 -0.481290E+02  0.660E-01    0.44       0.0  T
   2    -47.9885071  0.140451E+00  0.212E+00    0.13       1.0  T
   3    -48.1316131 -0.143106E+00  0.501E-01    0.31       1.0  T
   4    -48.1369460 -0.533291E-02  0.189E-01    0.13       1.0  T
   5    -48.1366415  0.304528E-03  0.176E-01    0.09       1.0  T
   6    -48.1374725 -0.831061E-03  0.834E-02    0.12       1.0  T
   7    -48.1376640 -0.191440E-03  0.236E-02    0.11       1.0  T
   8    -48.1376681 -0.411748E-05  0.177E-02    0.11       1.0  T
   9    -48.1376766 -0.845575E-05  0.187E-03    0.11       9.9  T
  10    -48.1376764  0.193595E-06  0.285E-03    0.11       6.5  T
  11    -48.1376766 -0.242130E-06  0.503E-04    0.11      36.9  T
  12    -48.1376766 -0.131465E-08  0.158E-04    0.11     117.6  T
     SCC iter.                  ...        0 min,  0.090 sec
     gradient                   ...        0 min,  0.020 sec
 * total energy  :   -47.6110975 Eh     change       -0.1312237E-01 Eh
   gradient norm :     0.0427134 Eh/α   predicted    -0.1318772E-01 (   0.50%)
   displ. norm   :     0.4439610 α      lambda       -0.8968097E-02
   maximum displ.:     0.2158328 α      in ANC's #10, #7, #26, ...

........................................................................
.............................. CYCLE    5 ..............................
........................................................................

 iter      E             dE          RMSdq      gap      omega  full diag
   1    -48.1587543 -0.481588E+02  0.390E-01    0.39       0.0  T
   2    -48.0112797  0.147475E+00  0.215E+00    0.13       1.0  T
   3    -48.1615197 -0.150240E+00  0.227E-01    0.21       1.0  T
   4    -48.1604007  0.111898E-02  0.286E-01    0.10       1.0  T
   5    -48.1624272 -0.202648E-02  0.114E-01    0.12       1.0  T
   6    -48.1628483 -0.421093E-03  0.133E-02    0.14       1.4  T
   7    -48.1628428  0.551479E-05  0.176E-02    0.14       1.1  T
   8    -48.1628501 -0.733879E-05  0.787E-03    0.14       2.4  T
   9    -48.1628517 -0.162907E-05  0.160E-03    0.14      11.6  T
  10    -48.1628518 -0.279867E-07  0.662E-04    0.14      28.1  T
  11    -48.1628518 -0.417819E-08  0.386E-04    0.14      48.1  T
     SCC iter.                  ...        0 min,  0.041 sec
     gradient                   ...        0 min,  0.020 sec
 * total energy  :   -47.6169757 Eh     change       -0.5878185E-02 Eh
   gradient norm :     0.0530923 Eh/α   predicted    -0.5367886E-02 (  -8.68%)
   displ. norm   :     0.3968544 α      lambda       -0.6212911E-02
   maximum displ.:     0.1510115 α      in ANC's #7, #10, #6, ...

........................................................................
.............................. CYCLE    6 ..............................
........................................................................

 iter      E             dE          RMSdq      gap      omega  full diag
   1    -48.1722194 -0.481722E+02  0.307E-01    0.32       0.0  T
   2    -48.1206847  0.515347E-01  0.121E+00    0.03       1.0  T
   3    -48.1731848 -0.525002E-01  0.194E-01    0.29       1.0  T
   4    -48.1735734 -0.388564E-03  0.124E-01    0.22       1.0  T
   5    -48.1738628 -0.289430E-03  0.460E-02    0.19       1.0  T
   6    -48.1739028 -0.399293E-04  0.221E-02    0.18       1.0  T
   7    -48.1739038 -0.987504E-06  0.191E-02    0.18       1.0  T
   8    -48.1739092 -0.541569E-05  0.123E-02    0.18       1.5  T
   9    -48.1739129 -0.370042E-05  0.558E-03    0.17       3.3  T
  10    -48.1739138 -0.958207E-06  0.111E-03    0.17      16.8  T
  11    -48.1739139 -0.271331E-07  0.489E-04    0.17      38.0  T
  12    -48.1739139 -0.508592E-08  0.250E-04    0.17      74.2  T
     SCC iter.                  ...        0 min,  0.026 sec
     gradient                   ...        0 min,  0.025 sec
 * total energy  :   -47.6220208 Eh     change       -0.5045066E-02 Eh
   gradient norm :     0.0462341 Eh/α   predicted    -0.3595695E-02 ( -28.73%)
   displ. norm   :     0.6539073 α      lambda       -0.1048168E-01
   maximum displ.:     0.2273524 α      in ANC's #10, #7, #9, ...

........................................................................
.............................. CYCLE    7 ..............................
........................................................................

 iter      E             dE          RMSdq      gap      omega  full diag
   1    -48.1741221 -0.481741E+02  0.498E-01    0.79       0.0  T
   2    -48.1753743 -0.125221E-02  0.292E-01    0.71       1.0  T
   3    -48.1754374 -0.630441E-04  0.133E-01    0.72       1.0  T
   4    -48.1755254 -0.880086E-04  0.413E-02    0.69       1.0  T
   5    -48.1755353 -0.993522E-05  0.145E-02    0.69       1.3  T
   6    -48.1755380 -0.271950E-05  0.634E-03    0.69       2.9  T
   7    -48.1755382 -0.131179E-06  0.283E-03    0.69       6.6  T
   8    -48.1755382 -0.411208E-07  0.129E-03    0.69      14.3  T
   9    -48.1755382 -0.107657E-07  0.487E-04    0.69      38.1  T
  10    -48.1755382 -0.150317E-08  0.194E-04    0.69      95.9  T
     SCC iter.                  ...        0 min,  0.022 sec
     gradient                   ...        0 min,  0.020 sec
 * total energy  :   -47.6282914 Eh     change       -0.6270591E-02 Eh
   gradient norm :     0.0798688 Eh/α   predicted    -0.7481783E-02 (  19.32%)
   displ. norm   :     0.3327045 α      lambda       -0.6926550E-02
   maximum displ.:     0.1303304 α      in ANC's #5, #18, #8, ...

........................................................................
.............................. CYCLE    8 ..............................
........................................................................

 iter      E             dE          RMSdq      gap      omega  full diag
   1    -48.1789409 -0.481789E+02  0.271E-01    0.75       0.0  T
   2    -48.1793865 -0.445660E-03  0.147E-01    0.82       1.0  T
   3    -48.1794080 -0.214765E-04  0.662E-02    0.90       1.0  T
   4    -48.1794218 -0.137404E-04  0.243E-02    0.89       1.0  T
   5    -48.1794268 -0.508269E-05  0.527E-03    0.89       3.5  T
   6    -48.1794270 -0.183979E-06  0.264E-03    0.89       7.0  T
   7    -48.1794271 -0.468548E-07  0.126E-03    0.89      14.7  T
   8    -48.1794271 -0.656652E-08  0.575E-04    0.89      32.3  T
   9    -48.1794271 -0.144024E-08  0.250E-04    0.89      74.4  T
     SCC iter.                  ...        0 min,  0.041 sec
     gradient                   ...        0 min,  0.021 sec
 * total energy  :   -47.6326298 Eh     change       -0.4338415E-02 Eh
   gradient norm :     0.0599160 Eh/α   predicted    -0.3846676E-02 ( -11.33%)
   displ. norm   :     0.3952406 α      lambda       -0.7857081E-02
   maximum displ.:     0.1872148 α      in ANC's #5, #2, #18, ...

........................................................................
.............................. CYCLE    9 ..............................
........................................................................

 iter      E             dE          RMSdq      gap      omega  full diag
   1    -48.1945706 -0.481946E+02  0.306E-01    0.61       0.0  T
   2    -48.1954014 -0.830814E-03  0.150E-01    0.70       1.0  T
   3    -48.1954571 -0.556616E-04  0.773E-02    0.78       1.0  T
   4    -48.1954665 -0.943956E-05  0.291E-02    0.79       1.0  T
   5    -48.1954710 -0.450502E-05  0.724E-03    0.79       2.6  T
   6    -48.1954713 -0.238290E-06  0.384E-03    0.79       4.8  T
   7    -48.1954714 -0.952499E-07  0.204E-03    0.78       9.1  T
   8    -48.1954714 -0.179066E-07  0.851E-04    0.78      21.8  T
   9    -48.1954714 -0.245003E-08  0.348E-04    0.78      53.4  T
     SCC iter.                  ...        0 min,  0.022 sec
     gradient                   ...        0 min,  0.020 sec
 * total energy  :   -47.6366505 Eh     change       -0.4020711E-02 Eh
   gradient norm :     0.0713272 Eh/α   predicted    -0.4542265E-02 (  12.97%)
   displ. norm   :     0.4996144 α      lambda       -0.9139287E-02
   maximum displ.:     0.1786586 α      in ANC's #18, #12, #5, ...

........................................................................
.............................. CYCLE   10 ..............................
........................................................................

 iter      E             dE          RMSdq      gap      omega  full diag
   1    -48.2007919 -0.482008E+02  0.362E-01    1.31       0.0  T
   2    -48.2016687 -0.876819E-03  0.181E-01    1.36       1.0  T
   3    -48.2017453 -0.765923E-04  0.928E-02    1.45       1.0  T
   4    -48.2017834 -0.381014E-04  0.371E-02    1.45       1.0  T
   5    -48.2017885 -0.515462E-05  0.977E-03    1.44       1.9  T
   6    -48.2017889 -0.346427E-06  0.585E-03    1.44       3.2  T
   7    -48.2017891 -0.206023E-06  0.211E-03    1.44       8.8  T
   8    -48.2017891 -0.154252E-07  0.798E-04    1.44      23.3  T
   9    -48.2017891 -0.289880E-08  0.240E-04    1.44      77.4  T
     SCC iter.                  ...        0 min,  0.021 sec
     gradient                   ...        0 min,  0.020 sec
 * total energy  :   -47.6428652 Eh     change       -0.6214715E-02 Eh
   gradient norm :     0.0502392 Eh/α   predicted    -0.5710323E-02 (  -8.12%)
   displ. norm   :     0.5447158 α      lambda       -0.8443305E-02
   maximum displ.:     0.2742195 α      in ANC's #2, #10, #3, ...

........................................................................
.............................. CYCLE   11 ..............................
........................................................................

 iter      E             dE          RMSdq      gap      omega  full diag
   1    -48.2169412 -0.482169E+02  0.326E-01    1.79       0.0  T
   2    -48.2173289 -0.387685E-03  0.181E-01    1.84       1.0  T
   3    -48.2173473 -0.184199E-04  0.908E-02    1.91       1.0  T
   4    -48.2174183 -0.709613E-04  0.283E-02    1.90       1.0  T
   5    -48.2174219 -0.358359E-05  0.106E-02    1.89       1.7  T
   6    -48.2174228 -0.890180E-06  0.597E-03    1.89       3.1  T
   7    -48.2174229 -0.127548E-06  0.159E-03    1.89      11.7  T
   8    -48.2174229 -0.898239E-08  0.592E-04    1.89      31.4  T
   9    -48.2174229 -0.370904E-08  0.224E-04    1.89      83.0  T
     SCC iter.                  ...        0 min,  0.020 sec
     gradient                   ...        0 min,  0.023 sec
 * total energy  :   -47.6456296 Eh     change       -0.2764350E-02 Eh
   gradient norm :     0.0688547 Eh/α   predicted    -0.5474300E-02 (  98.03%)
   displ. norm   :     0.4876323 α      lambda       -0.1027550E-01
   maximum displ.:     0.1794508 α      in ANC's #12, #2, #13, ...

........................................................................
.............................. CYCLE   12 ..............................
........................................................................

 iter      E             dE          RMSdq      gap      omega  full diag
   1    -48.2136574 -0.482137E+02  0.288E-01    1.73       0.0  T
   2    -48.2139539 -0.296500E-03  0.155E-01    1.78       1.0  T
   3    -48.2139732 -0.193852E-04  0.794E-02    1.85       1.0  T
   4    -48.2140172 -0.439954E-04  0.237E-02    1.85       1.0  T
   5    -48.2140199 -0.267789E-05  0.927E-03    1.84       2.0  T
   6    -48.2140203 -0.371734E-06  0.499E-03    1.84       3.7  T
   7    -48.2140204 -0.158577E-06  0.244E-03    1.84       7.6  T
   8    -48.2140205 -0.287660E-07  0.665E-04    1.84      27.9  T
   9    -48.2140205 -0.213348E-08  0.239E-04    1.84      77.7  T
     SCC iter.                  ...        0 min,  0.254 sec
     gradient                   ...        0 min,  0.011 sec
 * total energy  :   -47.6493794 Eh     change       -0.3749803E-02 Eh
   gradient norm :     0.0622810 Eh/α   predicted    -0.6359447E-02 (  69.59%)
   displ. norm   :     0.3339439 α      lambda       -0.7152027E-02
   maximum displ.:     0.1673280 α      in ANC's #15, #8, #5, ...

........................................................................
.............................. CYCLE   13 ..............................
........................................................................

 iter      E             dE          RMSdq      gap      omega  full diag
   1    -48.2181921 -0.482182E+02  0.233E-01    1.61       0.0  T
   2    -48.2183628 -0.170709E-03  0.145E-01    1.63       1.0  T
   3    -48.2183627  0.132412E-06  0.656E-02    1.69       1.0  T
   4    -48.2184071 -0.444165E-04  0.131E-02    1.69       1.4  T
   5    -48.2184084 -0.129536E-05  0.589E-03    1.68       3.2  T
   6    -48.2184086 -0.201413E-06  0.264E-03    1.68       7.0  T
   7    -48.2184086 -0.478100E-07  0.135E-03    1.68      13.8  T
   8    -48.2184086 -0.659024E-08  0.515E-04    1.68      36.1  T
   9    -48.2184086 -0.250522E-08  0.223E-04    1.68      83.3  T
     SCC iter.                  ...        0 min,  0.016 sec
     gradient                   ...        0 min,  0.010 sec
 * total energy  :   -47.6515918 Eh     change       -0.2212389E-02 Eh
   gradient norm :     0.0647019 Eh/α   predicted    -0.3974807E-02 (  79.66%)
   displ. norm   :     0.3328138 α      lambda       -0.5523404E-02
   maximum displ.:     0.1644670 α      in ANC's #5, #2, #12, ...

........................................................................
.............................. CYCLE   14 ..............................
........................................................................

 iter      E             dE          RMSdq      gap      omega  full diag
   1    -48.2147710 -0.482148E+02  0.206E-01    1.83       0.0  T
   2    -48.2148236 -0.525990E-04  0.124E-01    1.85       1.0  T
   3    -48.2147994  0.242123E-04  0.456E-02    1.87       1.0  T
   4    -48.2148386 -0.392657E-04  0.794E-03    1.86       2.3  T
   5    -48.2148390 -0.322959E-06  0.424E-03    1.86       4.4  T
   6    -48.2148390 -0.918267E-07  0.215E-03    1.86       8.6  T
   7    -48.2148391 -0.230793E-07  0.902E-04    1.86      20.6  T
   8    -48.2148391 -0.523234E-08  0.323E-04    1.86      57.5  T
     SCC iter.                  ...        0 min,  0.018 sec
     gradient                   ...        0 min,  0.010 sec
 * total energy  :   -47.6538409 Eh     change       -0.2249155E-02 Eh
   gradient norm :     0.0343596 Eh/α   predicted    -0.3067603E-02 (  36.39%)
   displ. norm   :     0.3837354 α      lambda       -0.3869754E-02
   maximum displ.:     0.2320255 α      in ANC's #2, #7, #3, ...

........................................................................
.............................. CYCLE   15 ..............................
........................................................................

 iter      E             dE          RMSdq      gap      omega  full diag
   1    -48.2217272 -0.482217E+02  0.159E-01    1.79       0.0  T
   2    -48.2217446 -0.174303E-04  0.951E-02    1.80       1.0  T
   3    -48.2217341  0.105526E-04  0.293E-02    1.79       1.0  T
   4    -48.2217505 -0.164640E-04  0.712E-03    1.80       2.6  T
   5    -48.2217507 -0.167222E-06  0.380E-03    1.79       4.9  T
   6    -48.2217508 -0.826002E-07  0.156E-03    1.79      11.9  T
   7    -48.2217508 -0.108372E-07  0.510E-04    1.79      36.4  T
   8    -48.2217508 -0.101427E-08  0.204E-04    1.79      91.1  T
     SCC iter.                  ...        0 min,  0.018 sec
     gradient                   ...        0 min,  0.011 sec
 * total energy  :   -47.6555368 Eh     change       -0.1695919E-02 Eh
   gradient norm :     0.0352430 Eh/α   predicted    -0.2219795E-02 (  30.89%)
   displ. norm   :     0.3952501 α      lambda       -0.2650124E-02
   maximum displ.:     0.1580612 α      in ANC's #2, #1, #12, ...

........................................................................
.............................. CYCLE   16 ..............................
........................................................................

 iter      E             dE          RMSdq      gap      omega  full diag
   1    -48.2226745 -0.482227E+02  0.142E-01    1.70       0.0  T
   2    -48.2227596 -0.850418E-04  0.766E-02    1.70       1.0  T
   3    -48.2227687 -0.911956E-05  0.420E-02    1.70       1.0  T
   4    -48.2227800 -0.112900E-04  0.128E-02    1.70       1.4  T
   5    -48.2227805 -0.492654E-06  0.450E-03    1.70       4.1  T
   6    -48.2227807 -0.195254E-06  0.212E-03    1.70       8.8  T
   7    -48.2227807 -0.206674E-07  0.841E-04    1.70      22.1  T
   8    -48.2227807 -0.249943E-08  0.308E-04    1.70      60.4  T
     SCC iter.                  ...        0 min,  0.044 sec
     gradient                   ...        0 min,  0.011 sec
 * total energy  :   -47.6569018 Eh     change       -0.1364918E-02 Eh
   gradient norm :     0.0350145 Eh/α   predicted    -0.1532073E-02 (  12.25%)
   displ. norm   :     0.3413998 α      lambda       -0.2388533E-02
   maximum displ.:     0.1533946 α      in ANC's #2, #5, #15, ...

........................................................................
.............................. CYCLE   17 ..............................
........................................................................

 iter      E             dE          RMSdq      gap      omega  full diag
   1    -48.2239690 -0.482240E+02  0.140E-01    1.61       0.0  T
   2    -48.2240140 -0.450647E-04  0.828E-02    1.62       1.0  T
   3    -48.2240103  0.372651E-05  0.345E-02    1.62       1.0  T
   4    -48.2240241 -0.137717E-04  0.893E-03    1.62       2.1  T
   5    -48.2240245 -0.448735E-06  0.335E-03    1.62       5.5  T
   6    -48.2240246 -0.951692E-07  0.183E-03    1.62      10.2  T
   7    -48.2240246 -0.127828E-07  0.648E-04    1.62      28.7  T
   8    -48.2240246 -0.295726E-08  0.253E-04    1.62      73.4  T
     SCC iter.                  ...        0 min,  0.013 sec
     gradient                   ...        0 min,  0.011 sec
 * total energy  :   -47.6582271 Eh     change       -0.1325380E-02 Eh
   gradient norm :     0.0247705 Eh/α   predicted    -0.1333465E-02 (   0.61%)
   displ. norm   :     0.4437178 α      lambda       -0.2397200E-02
   maximum displ.:     0.2729411 α      in ANC's #2, #5, #3, ...

........................................................................
.............................. CYCLE   18 ..............................
........................................................................

 iter      E             dE          RMSdq      gap      omega  full diag
   1    -48.2291218 -0.482291E+02  0.185E-01    1.51       0.0  T
   2    -48.2291770 -0.552394E-04  0.108E-01    1.51       1.0  T
   3    -48.2291684  0.863910E-05  0.379E-02    1.51       1.0  T
   4    -48.2291876 -0.192442E-04  0.905E-03    1.51       2.1  T
   5    -48.2291882 -0.578853E-06  0.303E-03    1.51       6.1  T
   6    -48.2291882 -0.256139E-07  0.171E-03    1.51      10.9  T
   7    -48.2291882 -0.139025E-07  0.812E-04    1.51      22.9  T
   8    -48.2291883 -0.491436E-08  0.267E-04    1.51      69.4  T
     SCC iter.                  ...        0 min,  0.014 sec
     gradient                   ...        0 min,  0.010 sec
 * total energy  :   -47.6592255 Eh     change       -0.9983827E-03 Eh
   gradient norm :     0.0246365 Eh/α   predicted    -0.1434590E-02 (  43.69%)
   displ. norm   :     0.4504389 α      lambda       -0.1974713E-02
   maximum displ.:     0.2449027 α      in ANC's #2, #7, #5, ...

........................................................................
.............................. CYCLE   19 ..............................
........................................................................

 iter      E             dE          RMSdq      gap      omega  full diag
   1    -48.2261705 -0.482262E+02  0.133E-01    1.45       0.0  T
   2    -48.2262066 -0.361279E-04  0.783E-02    1.45       1.0  T
   3    -48.2262034  0.322178E-05  0.347E-02    1.45       1.0  T
   4    -48.2262156 -0.122229E-04  0.767E-03    1.45       2.4  T
   5    -48.2262159 -0.237645E-06  0.357E-03    1.45       5.2  T
   6    -48.2262160 -0.115253E-06  0.150E-03    1.45      12.4  T
   7    -48.2262160 -0.904731E-08  0.581E-04    1.45      32.0  T
   8    -48.2262160 -0.105629E-08  0.216E-04    1.45      86.1  T
     SCC iter.                  ...        0 min,  0.015 sec
     gradient                   ...        0 min,  0.010 sec
 * total energy  :   -47.6603276 Eh     change       -0.1102099E-02 Eh
   gradient norm :     0.0191054 Eh/α   predicted    -0.1187689E-02 (   7.77%)
   displ. norm   :     0.3804365 α      lambda       -0.1146695E-02
   maximum displ.:     0.2036040 α      in ANC's #2, #7, #5, ...

........................................................................
.............................. CYCLE   20 ..............................
........................................................................

 iter      E             dE          RMSdq      gap      omega  full diag
   1    -48.2278089 -0.482278E+02  0.114E-01    1.39       0.0  T
   2    -48.2278223 -0.133779E-04  0.681E-02    1.39       1.0  T
   3    -48.2278174  0.495838E-05  0.213E-02    1.39       1.0  T
   4    -48.2278249 -0.751376E-05  0.454E-03    1.39       4.1  T
   5    -48.2278251 -0.195425E-06  0.220E-03    1.39       8.4  T
   6    -48.2278251 -0.223461E-07  0.108E-03    1.39      17.2  T
   7    -48.2278251 -0.499593E-08  0.401E-04    1.39      46.3  T
   8    -48.2278251 -0.685787E-09  0.133E-04    1.39     140.0  T
     SCC iter.                  ...        0 min,  0.012 sec
     gradient                   ...        0 min,  0.010 sec
 * total energy  :   -47.6609737 Eh     change       -0.6460938E-03 Eh
   gradient norm :     0.0206396 Eh/α   predicted    -0.6563316E-03 (   1.58%)
   displ. norm   :     0.4008134 α      lambda       -0.1035245E-02
   maximum displ.:     0.2260094 α      in ANC's #2, #5, #7, ...
 * RMSD in coord.:     1.0015569 α      energy gain  -0.2520039E+00 Eh

generating ANC from exact Hessian ...
Using Lindh-Hessian (1995)
 Shifting diagonal of input Hessian by    9.8516240935034201E-003
 Lowest  eigenvalues of input Hessian
    0.000000    0.000000    0.000000    0.000000    0.000000    0.000000
    0.010000    0.010236    0.010554    0.011084    0.011347    0.011513
    0.011987    0.012635    0.013917    0.017053    0.022385    0.025128
 Highest eigenvalues
    1.706228    1.845420    1.915166    2.033090    2.130478    2.139477


........................................................................
.............................. CYCLE   21 ..............................
........................................................................

 iter      E             dE          RMSdq      gap      omega  full diag
   1    -48.2302355 -0.482302E+02  0.116E-01    1.44       0.0  T
   2    -48.2302619 -0.263892E-04  0.676E-02    1.44       1.0  T
   3    -48.2302603  0.164915E-05  0.279E-02    1.43       1.0  T
   4    -48.2302674 -0.713290E-05  0.669E-03    1.43       2.8  T
   5    -48.2302677 -0.294491E-06  0.272E-03    1.43       6.8  T
   6    -48.2302677 -0.206747E-07  0.113E-03    1.43      16.4  T
   7    -48.2302677 -0.133864E-07  0.495E-04    1.43      37.5  T
   8    -48.2302677 -0.110563E-08  0.191E-04    1.43      97.4  T
     SCC iter.                  ...        0 min,  0.013 sec
     gradient                   ...        0 min,  0.010 sec
 * total energy  :   -47.6615964 Eh     change       -0.6226536E-03 Eh
   gradient norm :     0.0156389 Eh/α   predicted     0.0000000E+00 (-100.00%)
   displ. norm   :     0.1169873 α      lambda       -0.4682032E-03
   maximum displ.:     0.0733267 α      in ANC's #5, #4, #10, ...

........................................................................
.............................. CYCLE   22 ..............................
........................................................................

 iter      E             dE          RMSdq      gap      omega  full diag
   1    -48.2313299 -0.482313E+02  0.435E-02    1.43       0.0  T
   2    -48.2313316 -0.177871E-05  0.259E-02    1.43       1.0  T
   3    -48.2313306  0.100100E-05  0.876E-03    1.43       2.1  T
   4    -48.2313321 -0.149253E-05  0.136E-03    1.43      13.7  T
   5    -48.2313321 -0.117040E-07  0.717E-04    1.43      25.9  T
   6    -48.2313322 -0.281201E-08  0.316E-04    1.43      58.8  T
     SCC iter.                  ...        0 min,  0.010 sec
     gradient                   ...        0 min,  0.010 sec
 * total energy  :   -47.6619505 Eh     change       -0.3541646E-03 Eh
   gradient norm :     0.0060336 Eh/α   predicted    -0.2373084E-03 ( -32.99%)
   displ. norm   :     0.2411533 α      lambda       -0.4516212E-03
   maximum displ.:     0.1592715 α      in ANC's #5, #4, #10, ...

........................................................................
.............................. CYCLE   23 ..............................
........................................................................

 iter      E             dE          RMSdq      gap      omega  full diag
   1    -48.2318467 -0.482318E+02  0.716E-02    1.43       0.0  T
   2    -48.2318499 -0.323363E-05  0.424E-02    1.43       1.0  T
   3    -48.2318475  0.236917E-05  0.120E-02    1.43       1.5  T
   4    -48.2318508 -0.322832E-05  0.208E-03    1.43       8.9  T
   5    -48.2318508 -0.276329E-07  0.106E-03    1.43      17.5  T
   6    -48.2318508 -0.487778E-08  0.510E-04    1.43      36.4  T
   7    -48.2318508 -0.135924E-08  0.164E-04    1.43     113.2  T
     SCC iter.                  ...        0 min,  0.011 sec
     gradient                   ...        0 min,  0.010 sec
 * total energy  :   -47.6622645 Eh     change       -0.3139805E-03 Eh
   gradient norm :     0.0066861 Eh/α   predicted    -0.2389640E-03 ( -23.89%)
   displ. norm   :     0.2513101 α      lambda       -0.2782863E-03
   maximum displ.:     0.1579031 α      in ANC's #5, #4, #1, ...

........................................................................
.............................. CYCLE   24 ..............................
........................................................................

 iter      E             dE          RMSdq      gap      omega  full diag
   1    -48.2313876 -0.482314E+02  0.714E-02    1.44       0.0  T
   2    -48.2313892 -0.166997E-05  0.421E-02    1.44       1.0  T
   3    -48.2313880  0.119255E-05  0.816E-03    1.44       2.3  T
   4    -48.2313897 -0.161709E-05  0.181E-03    1.44      10.2  T
   5    -48.2313897 -0.211676E-07  0.872E-04    1.44      21.3  T
   6    -48.2313897 -0.185001E-08  0.433E-04    1.44      42.9  T
     SCC iter.                  ...        0 min,  0.010 sec
     gradient                   ...        0 min,  0.022 sec
 * total energy  :   -47.6625000 Eh     change       -0.2354592E-03 Eh
   gradient norm :     0.0101089 Eh/α   predicted    -0.1479349E-03 ( -37.17%)
   displ. norm   :     0.4285214 α      lambda       -0.4631927E-03
   maximum displ.:     0.2534910 α      in ANC's #5, #4, #6, ...

........................................................................
.............................. CYCLE   25 ..............................
........................................................................

 iter      E             dE          RMSdq      gap      omega  full diag
   1    -48.2297390 -0.482297E+02  0.125E-01    1.45       0.0  T
   2    -48.2297425 -0.349168E-05  0.738E-02    1.45       1.0  T
   3    -48.2297404  0.201399E-05  0.112E-02    1.45       1.7  T
   4    -48.2297433 -0.290052E-05  0.287E-03    1.45       6.5  T
   5    -48.2297434 -0.553785E-07  0.135E-03    1.45      13.7  T
   6    -48.2297434 -0.372674E-08  0.664E-04    1.45      28.0  T
   7    -48.2297434 -0.385457E-08  0.242E-04    1.45      76.7  T
     SCC iter.                  ...        0 min,  0.147 sec
     gradient                   ...        0 min,  0.019 sec
 * total energy  :   -47.6628678 Eh     change       -0.3678190E-03 Eh
   gradient norm :     0.0112638 Eh/α   predicted    -0.2741272E-03 ( -25.47%)
   displ. norm   :     0.4827887 α      lambda       -0.4800928E-03
   maximum displ.:     0.2747408 α      in ANC's #5, #4, #6, ...

........................................................................
.............................. CYCLE   26 ..............................
........................................................................

 iter      E             dE          RMSdq      gap      omega  full diag
   1    -48.2281975 -0.482282E+02  0.144E-01    1.47       0.0  T
   2    -48.2282008 -0.335089E-05  0.849E-02    1.47       1.0  T
   3    -48.2281993  0.152122E-05  0.104E-02    1.47       1.8  T
   4    -48.2282016 -0.233055E-05  0.284E-03    1.47       6.5  T
   5    -48.2282017 -0.595434E-07  0.137E-03    1.47      13.5  T
   6    -48.2282017 -0.366834E-08  0.662E-04    1.47      28.0  T
   7    -48.2282017 -0.370163E-08  0.223E-04    1.47      83.5  T
     SCC iter.                  ...        0 min,  0.015 sec
     gradient                   ...        0 min,  0.019 sec
 * total energy  :   -47.6632505 Eh     change       -0.3827327E-03 Eh
   gradient norm :     0.0098014 Eh/α   predicted    -0.2960023E-03 ( -22.66%)
   displ. norm   :     0.5242251 α      lambda       -0.5399041E-03
   maximum displ.:     0.2816887 α      in ANC's #5, #6, #4, ...

........................................................................
.............................. CYCLE   27 ..............................
........................................................................

 iter      E             dE          RMSdq      gap      omega  full diag
   1    -48.2284883 -0.482285E+02  0.160E-01    1.47       0.0  T
   2    -48.2284915 -0.320244E-05  0.940E-02    1.47       1.0  T
   3    -48.2284901  0.137068E-05  0.102E-02    1.47       1.8  T
   4    -48.2284923 -0.219152E-05  0.286E-03    1.47       6.5  T
   5    -48.2284924 -0.563309E-07  0.145E-03    1.47      12.8  T
   6    -48.2284924 -0.360556E-08  0.686E-04    1.47      27.1  T
   7    -48.2284924 -0.415375E-08  0.197E-04    1.47      94.4  T
     SCC iter.                  ...        0 min,  0.015 sec
     gradient                   ...        0 min,  0.019 sec
 * total energy  :   -47.6636864 Eh     change       -0.4358834E-03 Eh
   gradient norm :     0.0089858 Eh/α   predicted    -0.3441512E-03 ( -21.05%)
   displ. norm   :     0.5401966 α      lambda       -0.5776196E-03
   maximum displ.:     0.2763619 α      in ANC's #6, #5, #4, ...

........................................................................
.............................. CYCLE   28 ..............................
........................................................................

 iter      E             dE          RMSdq      gap      omega  full diag
   1    -48.2304102 -0.482304E+02  0.166E-01    1.45       0.0  T
   2    -48.2304132 -0.299183E-05  0.978E-02    1.45       1.0  T
   3    -48.2304125  0.715516E-06  0.929E-03    1.45       2.0  T
   4    -48.2304142 -0.166415E-05  0.324E-03    1.45       5.7  T
   5    -48.2304142 -0.585694E-07  0.165E-03    1.45      11.2  T
   6    -48.2304142 -0.443626E-08  0.731E-04    1.45      25.4  T
   7    -48.2304142 -0.540951E-08  0.225E-04    1.45      82.7  T
     SCC iter.                  ...        0 min,  0.016 sec
     gradient                   ...        0 min,  0.015 sec
 * total energy  :   -47.6641753 Eh     change       -0.4889129E-03 Eh
   gradient norm :     0.0098595 Eh/α   predicted    -0.3730891E-03 ( -23.69%)
   displ. norm   :     0.6201998 α      lambda       -0.6893789E-03
   maximum displ.:     0.3333887 α      in ANC's #6, #5, #4, ...

........................................................................
.............................. CYCLE   29 ..............................
........................................................................

 iter      E             dE          RMSdq      gap      omega  full diag
   1    -48.2318576 -0.482319E+02  0.187E-01    1.41       0.0  T
   2    -48.2318619 -0.426548E-05  0.111E-01    1.41       1.0  T
   3    -48.2318607  0.116374E-05  0.119E-02    1.41       1.6  T
   4    -48.2318635 -0.275832E-05  0.405E-03    1.41       4.6  T
   5    -48.2318635 -0.626630E-07  0.209E-03    1.41       8.9  T
   6    -48.2318635 -0.111883E-07  0.932E-04    1.41      19.9  T
   7    -48.2318636 -0.795114E-08  0.289E-04    1.41      64.3  T
     SCC iter.                  ...        0 min,  0.016 sec
     gradient                   ...        0 min,  0.014 sec
 * total energy  :   -47.6647926 Eh     change       -0.6173028E-03 Eh
   gradient norm :     0.0101888 Eh/α   predicted    -0.4772778E-03 ( -22.68%)
   displ. norm   :     0.7257037 α      lambda       -0.8712173E-03
   maximum displ.:     0.4186195 α      in ANC's #6, #4, #5, ...

........................................................................
.............................. CYCLE   30 ..............................
........................................................................

 iter      E             dE          RMSdq      gap      omega  full diag
   1    -48.2337676 -0.482338E+02  0.217E-01    1.37       0.0  T
   2    -48.2337745 -0.690064E-05  0.128E-01    1.37       1.0  T
   3    -48.2337710  0.353697E-05  0.170E-02    1.37       1.1  T
   4    -48.2337770 -0.599032E-05  0.467E-03    1.37       4.0  T
   5    -48.2337770 -0.613846E-07  0.247E-03    1.37       7.5  T
   6    -48.2337771 -0.209610E-07  0.103E-03    1.37      18.0  T
   7    -48.2337771 -0.895916E-08  0.343E-04    1.37      54.1  T
   8    -48.2337771 -0.490679E-09  0.145E-04    1.37     127.8  T
     SCC iter.                  ...        0 min,  0.024 sec
     gradient                   ...        0 min,  0.010 sec
 * total energy  :   -47.6655047 Eh     change       -0.7120687E-03 Eh
   gradient norm :     0.0126270 Eh/α   predicted    -0.6650768E-03 (  -6.60%)
   displ. norm   :     0.7514463 α      lambda       -0.7366068E-03
   maximum displ.:     0.4087801 α      in ANC's #6, #4, #5, ...

........................................................................
.............................. CYCLE   31 ..............................
........................................................................

 iter      E             dE          RMSdq      gap      omega  full diag
   1    -48.2235526 -0.482236E+02  0.228E-01    1.34       0.0  T
   2    -48.2235614 -0.875700E-05  0.135E-01    1.34       1.0  T
   3    -48.2235585  0.294466E-05  0.172E-02    1.34       1.1  T
   4    -48.2235642 -0.572784E-05  0.542E-03    1.34       3.4  T
   5    -48.2235644 -0.170197E-06  0.310E-03    1.34       6.0  T
   6    -48.2235644 -0.282631E-07  0.111E-03    1.34      16.7  T
   7    -48.2235644 -0.901262E-08  0.330E-04    1.34      56.3  T
   8    -48.2235644 -0.509488E-09  0.186E-04    1.34      99.6  T
     SCC iter.                  ...        0 min,  0.015 sec
     gradient                   ...        0 min,  0.010 sec
 * total energy  :   -47.6658906 Eh     change       -0.3858945E-03 Eh
   gradient norm :     0.0208325 Eh/α   predicted    -0.5762796E-03 (  49.34%)
   displ. norm   :     0.4284699 α      lambda       -0.1292254E-02
   maximum displ.:     0.2738399 α      in ANC's #6, #1, #4, ...

........................................................................
.............................. CYCLE   32 ..............................
........................................................................

 iter      E             dE          RMSdq      gap      omega  full diag
   1    -48.2389392 -0.482389E+02  0.148E-01    1.34       0.0  T
   2    -48.2389539 -0.146725E-04  0.865E-02    1.34       1.0  T
   3    -48.2389483  0.558829E-05  0.232E-02    1.34       1.0  T
   4    -48.2389566 -0.830080E-05  0.381E-03    1.34       4.9  T
   5    -48.2389567 -0.111570E-06  0.195E-03    1.34       9.5  T
   6    -48.2389567 -0.289452E-08  0.976E-04    1.34      19.0  T
   7    -48.2389567 -0.807565E-08  0.238E-04    1.34      78.0  T
     SCC iter.                  ...        0 min,  0.013 sec
     gradient                   ...        0 min,  0.011 sec
 * total energy  :   -47.6664060 Eh     change       -0.5154150E-03 Eh
   gradient norm :     0.0211198 Eh/α   predicted    -0.7647483E-03 (  48.38%)
   displ. norm   :     0.3926237 α      lambda       -0.9332502E-03
   maximum displ.:     0.2095329 α      in ANC's #6, #4, #1, ...

........................................................................
.............................. CYCLE   33 ..............................
........................................................................

 iter      E             dE          RMSdq      gap      omega  full diag
   1    -48.2352248 -0.482352E+02  0.121E-01    1.35       0.0  T
   2    -48.2352295 -0.474358E-05  0.711E-02    1.35       1.0  T
   3    -48.2352274  0.214071E-05  0.135E-02    1.35       1.4  T
   4    -48.2352307 -0.338636E-05  0.357E-03    1.35       5.2  T
   5    -48.2352308 -0.770179E-07  0.185E-03    1.35      10.0  T
   6    -48.2352308 -0.910104E-08  0.747E-04    1.35      24.9  T
   7    -48.2352308 -0.454123E-08  0.314E-04    1.35      59.2  T
     SCC iter.                  ...        0 min,  0.022 sec
     gradient                   ...        0 min,  0.010 sec
 * total energy  :   -47.6670100 Eh     change       -0.6040346E-03 Eh
   gradient norm :     0.0124528 Eh/α   predicted    -0.5385581E-03 ( -10.84%)
   displ. norm   :     0.6024981 α      lambda       -0.7342875E-03
   maximum displ.:     0.3571199 α      in ANC's #6, #4, #1, ...

........................................................................
.............................. CYCLE   34 ..............................
........................................................................

 iter      E             dE          RMSdq      gap      omega  full diag
   1    -48.2302442 -0.482302E+02  0.185E-01    1.36       0.0  T
   2    -48.2302528 -0.860849E-05  0.109E-01    1.36       1.0  T
   3    -48.2302469  0.592333E-05  0.196E-02    1.36       1.0  T
   4    -48.2302552 -0.828882E-05  0.421E-03    1.36       4.4  T
   5    -48.2302553 -0.126768E-06  0.237E-03    1.36       7.8  T
   6    -48.2302553 -0.181742E-07  0.105E-03    1.36      17.6  T
   7    -48.2302553 -0.627262E-08  0.333E-04    1.36      55.7  T
   8    -48.2302553 -0.932673E-09  0.170E-04    1.36     109.2  T
     SCC iter.                  ...        0 min,  0.013 sec
     gradient                   ...        0 min,  0.010 sec
 * total energy  :   -47.6674838 Eh     change       -0.4737889E-03 Eh
   gradient norm :     0.0143223 Eh/α   predicted    -0.5004215E-03 (   5.62%)
   displ. norm   :     0.3961217 α      lambda       -0.6694656E-03
   maximum displ.:     0.2228440 α      in ANC's #6, #1, #4, ...

........................................................................
.............................. CYCLE   35 ..............................
........................................................................

 iter      E             dE          RMSdq      gap      omega  full diag
   1    -48.2336635 -0.482337E+02  0.146E-01    1.37       0.0  T
   2    -48.2336709 -0.743718E-05  0.856E-02    1.37       1.0  T
   3    -48.2336635  0.741731E-05  0.220E-02    1.37       1.0  T
   4    -48.2336732 -0.966057E-05  0.293E-03    1.36       6.3  T
   5    -48.2336732 -0.686895E-07  0.162E-03    1.36      11.5  T
   6    -48.2336732 -0.951311E-08  0.739E-04    1.36      25.1  T
   7    -48.2336732 -0.251124E-08  0.269E-04    1.36      69.2  T
     SCC iter.                  ...        0 min,  0.011 sec
     gradient                   ...        0 min,  0.010 sec
 * total energy  :   -47.6679378 Eh     change       -0.4540163E-03 Eh
   gradient norm :     0.0203402 Eh/α   predicted    -0.3872703E-03 ( -14.70%)
   displ. norm   :     0.5327319 α      lambda       -0.1081169E-02
   maximum displ.:     0.3458871 α      in ANC's #6, #1, #4, ...

........................................................................
.............................. CYCLE   36 ..............................
........................................................................

 iter      E             dE          RMSdq      gap      omega  full diag
   1    -48.2396344 -0.482396E+02  0.174E-01    1.42       0.0  T
   2    -48.2396503 -0.158178E-04  0.102E-01    1.42       1.0  T
   3    -48.2396391  0.111897E-04  0.294E-02    1.42       1.0  T
   4    -48.2396545 -0.154688E-04  0.504E-03    1.42       3.7  T
   5    -48.2396547 -0.194775E-06  0.258E-03    1.42       7.2  T
   6    -48.2396547 -0.213474E-07  0.101E-03    1.42      18.4  T
   7    -48.2396548 -0.621495E-08  0.392E-04    1.42      47.4  T
   8    -48.2396548 -0.716675E-09  0.192E-04    1.42      96.6  T
     SCC iter.                  ...        0 min,  0.016 sec
     gradient                   ...        0 min,  0.010 sec
 * total energy  :   -47.6686016 Eh     change       -0.6637820E-03 Eh
   gradient norm :     0.0117682 Eh/α   predicted    -0.6940068E-03 (   4.55%)
   displ. norm   :     0.6797657 α      lambda       -0.9299710E-03
   maximum displ.:     0.4454744 α      in ANC's #6, #1, #4, ...

........................................................................
.............................. CYCLE   37 ..............................
........................................................................

 iter      E             dE          RMSdq      gap      omega  full diag
   1    -48.2305432 -0.482305E+02  0.235E-01    1.39       0.0  T
   2    -48.2305597 -0.165195E-04  0.138E-01    1.39       1.0  T
   3    -48.2305460  0.137339E-04  0.318E-02    1.39       1.0  T
   4    -48.2305647 -0.186867E-04  0.593E-03    1.39       3.1  T
   5    -48.2305649 -0.241718E-06  0.326E-03    1.39       5.7  T
   6    -48.2305649 -0.211485E-07  0.143E-03    1.39      13.0  T
   7    -48.2305649 -0.170819E-07  0.462E-04    1.39      40.2  T
   8    -48.2305649 -0.107924E-08  0.244E-04    1.39      76.0  T
     SCC iter.                  ...        0 min,  0.012 sec
     gradient                   ...        0 min,  0.010 sec
 * total energy  :   -47.6688474 Eh     change       -0.2457714E-03 Eh
   gradient norm :     0.0264419 Eh/α   predicted    -0.6798538E-03 ( 176.62%)
   displ. norm   :     0.2504967 α      lambda       -0.1161506E-02
   maximum displ.:     0.1163157 α      in ANC's #1, #6, #8, ...

........................................................................
.............................. CYCLE   38 ..............................
........................................................................

 iter      E             dE          RMSdq      gap      omega  full diag
   1    -48.2455259 -0.482455E+02  0.101E-01    1.41       0.0  T
   2    -48.2455364 -0.105006E-04  0.587E-02    1.40       1.0  T
   3    -48.2455331  0.326933E-05  0.209E-02    1.40       1.0  T
   4    -48.2455389 -0.577486E-05  0.451E-03    1.40       4.1  T
   5    -48.2455391 -0.150131E-06  0.249E-03    1.40       7.4  T
   6    -48.2455391 -0.166807E-07  0.121E-03    1.40      15.4  T
   7    -48.2455391 -0.117590E-07  0.431E-04    1.40      43.1  T
   8    -48.2455391 -0.104363E-08  0.178E-04    1.40     104.6  T
     SCC iter.                  ...        0 min,  0.015 sec
     gradient                   ...        0 min,  0.010 sec
 * total energy  :   -47.6691570 Eh     change       -0.3095743E-03 Eh
   gradient norm :     0.0220482 Eh/α   predicted    -0.6171953E-03 (  99.37%)
   displ. norm   :     0.3864947 α      lambda       -0.1488829E-02
   maximum displ.:     0.1921173 α      in ANC's #6, #7, #1, ...

........................................................................
.............................. CYCLE   39 ..............................
........................................................................

 iter      E             dE          RMSdq      gap      omega  full diag
   1    -48.2377144 -0.482377E+02  0.148E-01    1.42       0.0  T
   2    -48.2377310 -0.165757E-04  0.860E-02    1.43       1.0  T
   3    -48.2377257  0.529261E-05  0.267E-02    1.42       1.0  T
   4    -48.2377367 -0.109724E-04  0.617E-03    1.43       3.0  T
   5    -48.2377368 -0.967406E-07  0.229E-03    1.43       8.1  T
   6    -48.2377368 -0.261390E-07  0.105E-03    1.43      17.7  T
   7    -48.2377368 -0.725694E-08  0.535E-04    1.43      34.7  T
   8    -48.2377368 -0.101910E-08  0.137E-04    1.43     135.1  T
     SCC iter.                  ...        0 min,  0.017 sec
     gradient                   ...        0 min,  0.013 sec
 * total energy  :   -47.6691136 Eh     change        0.4334329E-04 Eh
   gradient norm :     0.0313155 Eh/α   predicted    -0.8556135E-03 (*******%)
   displ. norm   :     0.1795197 α      lambda       -0.1492347E-02
   maximum displ.:     0.0864624 α      in ANC's #6, #8, #11, ...

........................................................................
.............................. CYCLE   40 ..............................
........................................................................

 iter      E             dE          RMSdq      gap      omega  full diag
   1    -48.2401380 -0.482401E+02  0.887E-02    1.40       0.0  T
   2    -48.2401448 -0.678617E-05  0.516E-02    1.40       1.0  T
   3    -48.2401432  0.160735E-05  0.165E-02    1.40       1.1  T
   4    -48.2401469 -0.366651E-05  0.381E-03    1.40       4.9  T
   5    -48.2401470 -0.726790E-07  0.191E-03    1.40       9.7  T
   6    -48.2401470 -0.919248E-08  0.769E-04    1.40      24.2  T
   7    -48.2401470 -0.411546E-08  0.405E-04    1.40      45.8  T
     SCC iter.                  ...        0 min,  0.174 sec
     gradient                   ...        0 min,  0.019 sec
 * total energy  :   -47.6698814 Eh     change       -0.7677587E-03 Eh
   gradient norm :     0.0111967 Eh/α   predicted    -0.7702221E-03 (   0.32%)
   displ. norm   :     0.4984111 α      lambda       -0.6005627E-03
   maximum displ.:     0.3231994 α      in ANC's #6, #1, #4, ...

........................................................................
.............................. CYCLE   41 ..............................
........................................................................

 iter      E             dE          RMSdq      gap      omega  full diag
   1    -48.2352757 -0.482353E+02  0.168E-01    1.39       0.0  T
   2    -48.2352869 -0.111875E-04  0.986E-02    1.39       1.0  T
   3    -48.2352778  0.908002E-05  0.260E-02    1.39       1.0  T
   4    -48.2352897 -0.119504E-04  0.419E-03    1.39       4.4  T
   5    -48.2352899 -0.157571E-06  0.201E-03    1.39       9.3  T
   6    -48.2352899 -0.102184E-07  0.884E-04    1.39      21.0  T
   7    -48.2352899 -0.316494E-08  0.247E-04    1.39      75.1  T
     SCC iter.                  ...        0 min,  0.022 sec
     gradient                   ...        0 min,  0.017 sec
 * total energy  :   -47.6699572 Eh     change       -0.7576644E-04 Eh
   gradient norm :     0.0156823 Eh/α   predicted    -0.3748807E-03 ( 394.78%)
   displ. norm   :     0.1594406 α      lambda       -0.6272348E-03
   maximum displ.:     0.0628244 α      in ANC's #7, #1, #11, ...

........................................................................
.............................. CYCLE   42 ..............................
........................................................................

 iter      E             dE          RMSdq      gap      omega  full diag
   1    -48.2415773 -0.482416E+02  0.639E-02    1.38       0.0  T
   2    -48.2415800 -0.270273E-05  0.374E-02    1.38       1.0  T
   3    -48.2415790  0.942235E-06  0.101E-02    1.38       1.8  T
   4    -48.2415807 -0.168843E-05  0.220E-03    1.38       8.4  T
   5    -48.2415807 -0.103786E-07  0.103E-03    1.38      18.0  T
   6    -48.2415807 -0.426660E-08  0.369E-04    1.38      50.4  T
   7    -48.2415807 -0.957129E-09  0.182E-04    1.38     101.8  T
     SCC iter.                  ...        0 min,  0.022 sec
     gradient                   ...        0 min,  0.017 sec
 * total energy  :   -47.6703114 Eh     change       -0.3542202E-03 Eh
   gradient norm :     0.0106041 Eh/α   predicted    -0.3215925E-03 (  -9.21%)
   displ. norm   :     0.2385956 α      lambda       -0.5370002E-03
   maximum displ.:     0.1145481 α      in ANC's #8, #6, #2, ...
 * RMSD in coord.:     1.5240577 α      energy gain  -0.9337656E-02 Eh

generating ANC from exact Hessian ...
Using Lindh-Hessian (1995)
 Shifting diagonal of input Hessian by    9.8785508561035750E-003
 Lowest  eigenvalues of input Hessian
    0.000000    0.000000    0.000000    0.000000    0.000000    0.000000
    0.010000    0.010072    0.010486    0.010640    0.011223    0.011267
    0.011578    0.011688    0.013954    0.016173    0.022915    0.025445
 Highest eigenvalues
    1.718460    1.884496    1.916719    2.036011    2.134392    2.142398


........................................................................
.............................. CYCLE   43 ..............................
........................................................................

 iter      E             dE          RMSdq      gap      omega  full diag
   1    -48.2444647 -0.482445E+02  0.958E-02    1.39       0.0  T
   2    -48.2444731 -0.845305E-05  0.574E-02    1.39       1.0  T
   3    -48.2444710  0.210078E-05  0.142E-02    1.39       1.3  T
   4    -48.2444746 -0.356554E-05  0.261E-03    1.39       7.1  T
   5    -48.2444746 -0.406964E-07  0.146E-03    1.39      12.7  T
   6    -48.2444746 -0.906945E-08  0.637E-04    1.39      29.2  T
   7    -48.2444747 -0.155848E-08  0.254E-04    1.39      73.2  T
     SCC iter.                  ...        0 min,  0.024 sec
     gradient                   ...        0 min,  0.017 sec
 * total energy  :   -47.6703628 Eh     change       -0.5146415E-04 Eh
   gradient norm :     0.0150347 Eh/α   predicted     0.0000000E+00 (-100.00%)
   displ. norm   :     0.0881434 α      lambda       -0.4352996E-03
   maximum displ.:     0.0393438 α      in ANC's #15, #3, #5, ...

........................................................................
.............................. CYCLE   44 ..............................
........................................................................

 iter      E             dE          RMSdq      gap      omega  full diag
   1    -48.2436207 -0.482436E+02  0.447E-02    1.38       0.0  T
   2    -48.2436229 -0.219518E-05  0.270E-02    1.38       1.0  T
   3    -48.2436223  0.544480E-06  0.762E-03    1.38       2.4  T
   4    -48.2436233 -0.931103E-06  0.118E-03    1.38      15.7  T
   5    -48.2436233 -0.104175E-07  0.673E-04    1.38      27.6  T
   6    -48.2436233 -0.132752E-08  0.279E-04    1.38      66.5  T
     SCC iter.                  ...        0 min,  0.018 sec
     gradient                   ...        0 min,  0.017 sec
 * total energy  :   -47.6706649 Eh     change       -0.3020974E-03 Eh
   gradient norm :     0.0052075 Eh/α   predicted    -0.2193423E-03 ( -27.39%)
   displ. norm   :     0.1350861 α      lambda       -0.2286054E-03
   maximum displ.:     0.0598506 α      in ANC's #3, #5, #15, ...

........................................................................
.............................. CYCLE   45 ..............................
........................................................................

 iter      E             dE          RMSdq      gap      omega  full diag
   1    -48.2426862 -0.482427E+02  0.429E-02    1.38       0.0  T
   2    -48.2426879 -0.172539E-05  0.258E-02    1.38       1.0  T
   3    -48.2426875  0.400524E-06  0.690E-03    1.38       2.7  T
   4    -48.2426882 -0.704323E-06  0.133E-03    1.38      14.0  T
   5    -48.2426883 -0.129836E-07  0.729E-04    1.38      25.5  T
   6    -48.2426883 -0.194705E-08  0.288E-04    1.38      64.5  T
     SCC iter.                  ...        0 min,  0.019 sec
     gradient                   ...        0 min,  0.017 sec
 * total energy  :   -47.6708234 Eh     change       -0.1584925E-03 Eh
   gradient norm :     0.0046815 Eh/α   predicted    -0.1164174E-03 ( -26.55%)
   displ. norm   :     0.1730340 α      lambda       -0.1632661E-03
   maximum displ.:     0.0840502 α      in ANC's #3, #5, #15, ...

........................................................................
.............................. CYCLE   46 ..............................
........................................................................

 iter      E             dE          RMSdq      gap      omega  full diag
   1    -48.2417651 -0.482418E+02  0.486E-02    1.38       0.0  T
   2    -48.2417661 -0.102525E-05  0.290E-02    1.38       1.0  T
   3    -48.2417659  0.236101E-06  0.528E-03    1.38       3.5  T
   4    -48.2417664 -0.456157E-06  0.149E-03    1.38      12.5  T
   5    -48.2417664 -0.139697E-07  0.807E-04    1.38      23.0  T
   6    -48.2417664 -0.199056E-08  0.270E-04    1.38      68.7  T
     SCC iter.                  ...        0 min,  0.019 sec
     gradient                   ...        0 min,  0.017 sec
 * total energy  :   -47.6709469 Eh     change       -0.1235218E-03 Eh
   gradient norm :     0.0089827 Eh/α   predicted    -0.8447889E-04 ( -31.61%)
   displ. norm   :     0.2407881 α      lambda       -0.2067337E-03
   maximum displ.:     0.1262318 α      in ANC's #3, #5, #1, ...

........................................................................
.............................. CYCLE   47 ..............................
........................................................................

 iter      E             dE          RMSdq      gap      omega  full diag
   1    -48.2409228 -0.482409E+02  0.644E-02    1.38       0.0  T
   2    -48.2409239 -0.113049E-05  0.383E-02    1.38       1.0  T
   3    -48.2409237  0.229575E-06  0.563E-03    1.38       3.3  T
   4    -48.2409242 -0.534954E-06  0.193E-03    1.38       9.6  T
   5    -48.2409242 -0.222217E-07  0.978E-04    1.38      19.0  T
   6    -48.2409242 -0.163774E-08  0.301E-04    1.38      61.7  T
     SCC iter.                  ...        0 min,  0.021 sec
     gradient                   ...        0 min,  0.017 sec
 * total energy  :   -47.6710996 Eh     change       -0.1526354E-03 Eh
   gradient norm :     0.0110560 Eh/α   predicted    -0.1093607E-03 ( -28.35%)
   displ. norm   :     0.2525140 α      lambda       -0.2528858E-03
   maximum displ.:     0.1424858 α      in ANC's #3, #5, #1, ...

........................................................................
.............................. CYCLE   48 ..............................
........................................................................

 iter      E             dE          RMSdq      gap      omega  full diag
   1    -48.2413282 -0.482413E+02  0.665E-02    1.39       0.0  T
   2    -48.2413294 -0.116086E-05  0.395E-02    1.39       1.0  T
   3    -48.2413290  0.400781E-06  0.621E-03    1.39       3.0  T
   4    -48.2413297 -0.742805E-06  0.192E-03    1.39       9.7  T
   5    -48.2413297 -0.163780E-07  0.946E-04    1.39      19.6  T
   6    -48.2413297 -0.176079E-08  0.369E-04    1.39      50.3  T
     SCC iter.                  ...        0 min,  0.023 sec
     gradient                   ...        0 min,  0.016 sec
 * total energy  :   -47.6712935 Eh     change       -0.1939325E-03 Eh
   gradient norm :     0.0071529 Eh/α   predicted    -0.1345094E-03 ( -30.64%)
   displ. norm   :     0.2901836 α      lambda       -0.2330543E-03
   maximum displ.:     0.1657135 α      in ANC's #3, #5, #1, ...

........................................................................
.............................. CYCLE   49 ..............................
........................................................................

 iter      E             dE          RMSdq      gap      omega  full diag
   1    -48.2426636 -0.482427E+02  0.778E-02    1.40       0.0  T
   2    -48.2426650 -0.141104E-05  0.461E-02    1.39       1.0  T
   3    -48.2426644  0.658590E-06  0.755E-03    1.39       2.5  T
   4    -48.2426655 -0.112857E-05  0.211E-03    1.39       8.8  T
   5    -48.2426655 -0.154156E-07  0.105E-03    1.39      17.6  T
   6    -48.2426655 -0.438021E-08  0.395E-04    1.39      47.1  T
   7    -48.2426655 -0.101380E-08  0.165E-04    1.39     112.5  T
     SCC iter.                  ...        0 min,  0.021 sec
     gradient                   ...        0 min,  0.017 sec
 * total energy  :   -47.6714642 Eh     change       -0.1706429E-03 Eh
   gradient norm :     0.0041953 Eh/α   predicted    -0.1263404E-03 ( -25.96%)
   displ. norm   :     0.3609901 α      lambda       -0.1712736E-03
   maximum displ.:     0.1981356 α      in ANC's #3, #5, #1, ...

........................................................................
.............................. CYCLE   50 ..............................
........................................................................

 iter      E             dE          RMSdq      gap      omega  full diag
   1    -48.2419223 -0.482419E+02  0.977E-02    1.40       0.0  T
   2    -48.2419239 -0.160541E-05  0.578E-02    1.40       1.0  T
   3    -48.2419229  0.978487E-06  0.925E-03    1.40       2.0  T
   4    -48.2419246 -0.167381E-05  0.251E-03    1.40       7.4  T
   5    -48.2419246 -0.121611E-07  0.105E-03    1.40      17.7  T
   6    -48.2419246 -0.437423E-08  0.429E-04    1.40      43.3  T
   7    -48.2419246 -0.186279E-08  0.169E-04    1.40     110.1  T
     SCC iter.                  ...        0 min,  0.026 sec
     gradient                   ...        0 min,  0.019 sec
 * total energy  :   -47.6715838 Eh     change       -0.1196611E-03 Eh
   gradient norm :     0.0061889 Eh/α   predicted    -0.9679667E-04 ( -19.11%)
   displ. norm   :     0.3443509 α      lambda       -0.2184248E-03
   maximum displ.:     0.2070563 α      in ANC's #5, #3, #1, ...

........................................................................
.............................. CYCLE   51 ..............................
........................................................................

 iter      E             dE          RMSdq      gap      omega  full diag
   1    -48.2448669 -0.482449E+02  0.102E-01    1.41       0.0  T
   2    -48.2448691 -0.222928E-05  0.598E-02    1.41       1.0  T
   3    -48.2448676  0.154615E-05  0.108E-02    1.41       1.7  T
   4    -48.2448699 -0.228584E-05  0.242E-03    1.41       7.7  T
   5    -48.2448699 -0.233364E-07  0.125E-03    1.41      14.9  T
   6    -48.2448699 -0.405794E-08  0.494E-04    1.41      37.6  T
   7    -48.2448699 -0.175856E-08  0.200E-04    1.41      92.9  T
     SCC iter.                  ...        0 min,  0.023 sec
     gradient                   ...        0 min,  0.019 sec
 * total energy  :   -47.6717149 Eh     change       -0.1310572E-03 Eh
   gradient norm :     0.0063572 Eh/α   predicted    -0.1221643E-03 (  -6.79%)
   displ. norm   :     0.4789503 α      lambda       -0.1586502E-03
   maximum displ.:     0.2711509 α      in ANC's #5, #3, #1, ...

........................................................................
.............................. CYCLE   52 ..............................
........................................................................

 iter      E             dE          RMSdq      gap      omega  full diag
   1    -48.2404213 -0.482404E+02  0.139E-01    1.41       0.0  T
   2    -48.2404247 -0.338006E-05  0.820E-02    1.41       1.0  T
   3    -48.2404233  0.141093E-05  0.121E-02    1.41       1.5  T
   4    -48.2404259 -0.265713E-05  0.358E-03    1.41       5.2  T
   5    -48.2404260 -0.424568E-07  0.174E-03    1.41      10.7  T
   6    -48.2404260 -0.616332E-08  0.583E-04    1.41      31.9  T
   7    -48.2404260 -0.308202E-08  0.254E-04    1.41      73.2  T
     SCC iter.                  ...        0 min,  0.037 sec
     gradient                   ...        0 min,  0.034 sec
 * total energy  :   -47.6717669 Eh     change       -0.5197479E-04 Eh
   gradient norm :     0.0105517 Eh/α   predicted    -0.9753920E-04 (  87.67%)
   displ. norm   :     0.0620635 α      lambda       -0.1416506E-03
   maximum displ.:     0.0365573 α      in ANC's #3, #7, #9, ...

........................................................................
.............................. CYCLE   53 ..............................
........................................................................

 iter      E             dE          RMSdq      gap      omega  full diag
   1    -48.2444028 -0.482444E+02  0.290E-02    1.42       0.0  T
   2    -48.2444040 -0.119195E-05  0.164E-02    1.42       1.1  T
   3    -48.2444039  0.113172E-06  0.562E-03    1.42       3.3  T
   4    -48.2444041 -0.261225E-06  0.125E-03    1.42      14.8  T
   5    -48.2444041 -0.167214E-07  0.630E-04    1.42      29.5  T
   6    -48.2444041 -0.177465E-09  0.262E-04    1.42      70.9  T
     SCC iter.                  ...        0 min,  0.030 sec
     gradient                   ...        0 min,  0.034 sec
 * total energy  :   -47.6718445 Eh     change       -0.7769246E-04 Eh
   gradient norm :     0.0036177 Eh/α   predicted    -0.7109791E-04 (  -8.49%)
   displ. norm   :     0.1858672 α      lambda       -0.9635519E-04
   maximum displ.:     0.1105826 α      in ANC's #3, #5, #1, ...

........................................................................
.............................. CYCLE   54 ..............................
........................................................................

 iter      E             dE          RMSdq      gap      omega  full diag
   1    -48.2456364 -0.482456E+02  0.651E-02    1.41       0.0  T
   2    -48.2456371 -0.661925E-06  0.384E-02    1.41       1.0  T
   3    -48.2456371 -0.673987E-07  0.319E-03    1.41       5.8  T
   4    -48.2456373 -0.133921E-06  0.153E-03    1.41      12.1  T
   5    -48.2456373 -0.149900E-07  0.725E-04    1.41      25.6  T
   6    -48.2456373 -0.143592E-08  0.321E-04    1.41      57.9  T
     SCC iter.                  ...        0 min,  0.029 sec
     gradient                   ...        0 min,  0.034 sec
 * total energy  :   -47.6719083 Eh     change       -0.6370777E-04 Eh
   gradient norm :     0.0052137 Eh/α   predicted    -0.4984494E-04 ( -21.76%)
   displ. norm   :     0.4057344 α      lambda       -0.1103964E-03
   maximum displ.:     0.2197745 α      in ANC's #5, #3, #1, ...

........................................................................
.............................. CYCLE   55 ..............................
........................................................................

 iter      E             dE          RMSdq      gap      omega  full diag
   1    -48.2436560 -0.482437E+02  0.125E-01    1.42       0.0  T
   2    -48.2436584 -0.245725E-05  0.735E-02    1.42       1.0  T
   3    -48.2436575  0.943048E-06  0.960E-03    1.42       1.9  T
   4    -48.2436593 -0.178787E-05  0.297E-03    1.42       6.3  T
   5    -48.2436593 -0.241354E-07  0.137E-03    1.42      13.6  T
   6    -48.2436593 -0.845426E-08  0.511E-04    1.42      36.4  T
   7    -48.2436593 -0.161677E-08  0.195E-04    1.42      95.5  T
     SCC iter.                  ...        0 min,  0.036 sec
     gradient                   ...        0 min,  0.034 sec
 * total energy  :   -47.6719629 Eh     change       -0.5463197E-04 Eh
   gradient norm :     0.0058639 Eh/α   predicted    -0.6428646E-04 (  17.67%)
   displ. norm   :     0.0579760 α      lambda       -0.5881073E-04
   maximum displ.:     0.0358908 α      in ANC's #1, #7, #3, ...

........................................................................
.............................. CYCLE   56 ..............................
........................................................................

 iter      E             dE          RMSdq      gap      omega  full diag
   1    -48.2452003 -0.482452E+02  0.237E-02    1.41       0.0  T
   2    -48.2452005 -0.157431E-06  0.139E-02    1.41       1.3  T
   3    -48.2452004  0.279351E-07  0.209E-03    1.41       8.9  T
   4    -48.2452005 -0.753243E-07  0.726E-04    1.41      25.6  T
   5    -48.2452005 -0.200966E-08  0.360E-04    1.41      51.6  T
     SCC iter.                  ...        0 min,  0.035 sec
     gradient                   ...        0 min,  0.038 sec
 * total energy  :   -47.6720001 Eh     change       -0.3725228E-04 Eh
   gradient norm :     0.0036685 Eh/α   predicted    -0.2951146E-04 ( -20.78%)
   displ. norm   :     0.1342239 α      lambda       -0.5720952E-04
   maximum displ.:     0.0773575 α      in ANC's #1, #3, #8, ...

........................................................................
.............................. CYCLE   57 ..............................
........................................................................

 iter      E             dE          RMSdq      gap      omega  full diag
   1    -48.2464011 -0.482464E+02  0.450E-02    1.42       0.0  T
   2    -48.2464019 -0.735878E-06  0.262E-02    1.42       1.0  T
   3    -48.2464014  0.462169E-06  0.603E-03    1.42       3.1  T
   4    -48.2464021 -0.684183E-06  0.118E-03    1.42      15.7  T
   5    -48.2464021 -0.369216E-08  0.499E-04    1.42      37.2  T
   6    -48.2464021 -0.452623E-09  0.188E-04    1.42      98.9  T
     SCC iter.                  ...        0 min,  0.075 sec
     gradient                   ...        0 min,  0.033 sec
 * total energy  :   -47.6720366 Eh     change       -0.3645166E-04 Eh
   gradient norm :     0.0046063 Eh/α   predicted    -0.2912182E-04 ( -20.11%)
   displ. norm   :     0.3620601 α      lambda       -0.8856066E-04
   maximum displ.:     0.2228658 α      in ANC's #3, #1, #5, ...

........................................................................
.............................. CYCLE   58 ..............................
........................................................................

 iter      E             dE          RMSdq      gap      omega  full diag
   1    -48.2446469 -0.482446E+02  0.119E-01    1.41       0.0  T
   2    -48.2446484 -0.150282E-05  0.700E-02    1.41       1.0  T
   3    -48.2446484 -0.338247E-07  0.566E-03    1.41       3.3  T
   4    -48.2446490 -0.521431E-06  0.255E-03    1.41       7.3  T
   5    -48.2446490 -0.171156E-07  0.122E-03    1.41      15.2  T
   6    -48.2446490 -0.317560E-08  0.311E-04    1.41      59.6  T
   7    -48.2446490 -0.883396E-09  0.160E-04    1.41     116.4  T
     SCC iter.                  ...        0 min,  0.034 sec
     gradient                   ...        0 min,  0.033 sec
 * total energy  :   -47.6720895 Eh     change       -0.5295285E-04 Eh
   gradient norm :     0.0068937 Eh/α   predicted    -0.5008665E-04 (  -5.41%)
   displ. norm   :     0.1679148 α      lambda       -0.7153056E-04
   maximum displ.:     0.1084108 α      in ANC's #1, #3, #4, ...

........................................................................
.............................. CYCLE   59 ..............................
........................................................................

 iter      E             dE          RMSdq      gap      omega  full diag
   1    -48.2443854 -0.482444E+02  0.558E-02    1.41       0.0  T
   2    -48.2443861 -0.724231E-06  0.327E-02    1.41       1.0  T
   3    -48.2443856  0.487857E-06  0.597E-03    1.41       3.1  T
   4    -48.2443864 -0.747350E-06  0.139E-03    1.41      13.3  T
   5    -48.2443864 -0.438541E-08  0.454E-04    1.41      40.9  T
   6    -48.2443864 -0.441212E-09  0.171E-04    1.41     108.5  T
     SCC iter.                  ...        0 min,  0.028 sec
     gradient                   ...        0 min,  0.033 sec
 * total energy  :   -47.6721513 Eh     change       -0.6176309E-04 Eh
   gradient norm :     0.0056477 Eh/α   predicted    -0.3677433E-04 ( -40.46%)
   displ. norm   :     0.4779753 α      lambda       -0.2065117E-03
   maximum displ.:     0.3111585 α      in ANC's #1, #3, #4, ...

........................................................................
.............................. CYCLE   60 ..............................
........................................................................

 iter      E             dE          RMSdq      gap      omega  full diag
   1    -48.2422643 -0.482423E+02  0.159E-01    1.41       0.0  T
   2    -48.2422683 -0.404353E-05  0.936E-02    1.41       1.0  T
   3    -48.2422655  0.282867E-05  0.143E-02    1.40       1.3  T
   4    -48.2422700 -0.449719E-05  0.374E-03    1.41       5.0  T
   5    -48.2422700 -0.211216E-07  0.883E-04    1.41      21.0  T
   6    -48.2422700 -0.381678E-08  0.466E-04    1.41      39.8  T
     SCC iter.                  ...        0 min,  0.031 sec
     gradient                   ...        0 min,  0.021 sec
 * total energy  :   -47.6722822 Eh     change       -0.1309132E-03 Eh
   gradient norm :     0.0084588 Eh/α   predicted    -0.1268525E-03 (  -3.10%)
   displ. norm   :     0.2937898 α      lambda       -0.2782745E-03
   maximum displ.:     0.2194573 α      in ANC's #5, #8, #1, ...

........................................................................
.............................. CYCLE   61 ..............................
........................................................................

 iter      E             dE          RMSdq      gap      omega  full diag
   1    -48.2487009 -0.482487E+02  0.834E-02    1.42       0.0  T
   2    -48.2487045 -0.357392E-05  0.488E-02    1.42       1.0  T
   3    -48.2487039  0.635281E-06  0.100E-02    1.42       1.9  T
   4    -48.2487052 -0.135658E-05  0.250E-03    1.42       7.4  T
   5    -48.2487053 -0.311282E-07  0.144E-03    1.42      12.9  T
   6    -48.2487053 -0.156231E-08  0.475E-04    1.42      39.1  T
   7    -48.2487053 -0.285760E-08  0.172E-04    1.42     108.2  T
     SCC iter.                  ...        0 min,  0.032 sec
     gradient                   ...        0 min,  0.033 sec
 * total energy  :   -47.6722030 Eh     change        0.7920683E-04 Eh
   gradient norm :     0.0162271 Eh/α   predicted    -0.1511549E-03 (-290.84%)
   displ. norm   :     0.1710723 α      lambda       -0.3617963E-03
   maximum displ.:     0.1077896 α      in ANC's #3, #5, #1, ...

........................................................................
.............................. CYCLE   62 ..............................
........................................................................

 iter      E             dE          RMSdq      gap      omega  full diag
   1    -48.2449360 -0.482449E+02  0.624E-02    1.41       0.0  T
   2    -48.2449375 -0.153090E-05  0.364E-02    1.41       1.0  T
   3    -48.2449375  0.135474E-07  0.511E-03    1.41       3.6  T
   4    -48.2449378 -0.289529E-06  0.187E-03    1.41       9.9  T
   5    -48.2449378 -0.208630E-07  0.109E-03    1.41      17.0  T
   6    -48.2449378 -0.242735E-08  0.327E-04    1.41      56.8  T
   7    -48.2449378 -0.116118E-08  0.138E-04    1.41     134.6  T
     SCC iter.                  ...        0 min,  0.045 sec
     gradient                   ...        0 min,  0.036 sec
 * total energy  :   -47.6724187 Eh     change       -0.2157340E-03 Eh
   gradient norm :     0.0059515 Eh/α   predicted    -0.1861948E-03 ( -13.69%)
   displ. norm   :     0.1456777 α      lambda       -0.7503862E-04
   maximum displ.:     0.0935051 α      in ANC's #1, #3, #4, ...

........................................................................
.............................. CYCLE   63 ..............................
........................................................................

 iter      E             dE          RMSdq      gap      omega  full diag
   1    -48.2437561 -0.482438E+02  0.448E-02    1.41       0.0  T
   2    -48.2437564 -0.354842E-06  0.264E-02    1.41       1.0  T
   3    -48.2437563  0.838852E-07  0.312E-03    1.41       6.0  T
   4    -48.2437565 -0.200416E-06  0.117E-03    1.41      15.8  T
   5    -48.2437565 -0.439168E-08  0.494E-04    1.41      37.6  T
   6    -48.2437565 -0.535081E-09  0.205E-04    1.41      90.8  T
     SCC iter.                  ...        0 min,  0.035 sec
     gradient                   ...        0 min,  0.035 sec
 * total energy  :   -47.6724758 Eh     change       -0.5705895E-04 Eh
   gradient norm :     0.0056513 Eh/α   predicted    -0.3832222E-04 ( -32.84%)
   displ. norm   :     0.1549021 α      lambda       -0.1107921E-03
   maximum displ.:     0.0822524 α      in ANC's #1, #3, #5, ...

........................................................................
.............................. CYCLE   64 ..............................
........................................................................

 iter      E             dE          RMSdq      gap      omega  full diag
   1    -48.2441355 -0.482441E+02  0.399E-02    1.42       0.0  T
   2    -48.2441362 -0.627711E-06  0.238E-02    1.42       1.0  T
   3    -48.2441361  0.106035E-06  0.350E-03    1.42       5.3  T
   4    -48.2441363 -0.259574E-06  0.128E-03    1.42      14.6  T
   5    -48.2441363 -0.131817E-07  0.539E-04    1.42      34.4  T
   6    -48.2441363 -0.647120E-09  0.303E-04    1.42      61.4  T
     SCC iter.                  ...        0 min,  0.038 sec
     gradient                   ...        0 min,  0.024 sec
 * total energy  :   -47.6725489 Eh     change       -0.7308597E-04 Eh
   gradient norm :     0.0059353 Eh/α   predicted    -0.5672850E-04 ( -22.38%)
   displ. norm   :     0.2453503 α      lambda       -0.7632796E-04
   maximum displ.:     0.1547711 α      in ANC's #1, #3, #5, ...

........................................................................
.............................. CYCLE   65 ..............................
........................................................................

 iter      E             dE          RMSdq      gap      omega  full diag
   1    -48.2433803 -0.482434E+02  0.653E-02    1.42       0.0  T
   2    -48.2433809 -0.640742E-06  0.387E-02    1.42       1.0  T
   3    -48.2433807  0.241263E-06  0.482E-03    1.42       3.9  T
   4    -48.2433812 -0.490426E-06  0.158E-03    1.42      11.7  T
   5    -48.2433812 -0.617352E-08  0.613E-04    1.42      30.3  T
   6    -48.2433812 -0.105914E-08  0.276E-04    1.42      67.2  T
     SCC iter.                  ...        0 min,  0.037 sec
     gradient                   ...        0 min,  0.036 sec
 * total energy  :   -47.6726024 Eh     change       -0.5350638E-04 Eh
   gradient norm :     0.0082883 Eh/α   predicted    -0.4046604E-04 ( -24.37%)
   displ. norm   :     0.2296310 α      lambda       -0.1119290E-03
   maximum displ.:     0.1280649 α      in ANC's #5, #1, #3, ...

........................................................................
.............................. CYCLE   66 ..............................
........................................................................

 iter      E             dE          RMSdq      gap      omega  full diag
   1    -48.2445192 -0.482445E+02  0.490E-02    1.43       0.0  T
   2    -48.2445202 -0.938994E-06  0.293E-02    1.43       1.0  T
   3    -48.2445198  0.415083E-06  0.598E-03    1.43       3.1  T
   4    -48.2445204 -0.640695E-06  0.146E-03    1.43      12.7  T
   5    -48.2445204 -0.138848E-07  0.722E-04    1.43      25.7  T
   6    -48.2445204 -0.106748E-08  0.304E-04    1.43      61.2  T
     SCC iter.                  ...        0 min,  0.043 sec
     gradient                   ...        0 min,  0.024 sec
 * total energy  :   -47.6726728 Eh     change       -0.7038678E-04 Eh
   gradient norm :     0.0058954 Eh/α   predicted    -0.5891729E-04 ( -16.29%)
   displ. norm   :     0.3122717 α      lambda       -0.9988510E-04
   maximum displ.:     0.2066830 α      in ANC's #1, #3, #5, ...
 * RMSD in coord.:     0.7832248 α      energy gain  -0.2361410E-02 Eh

generating ANC from exact Hessian ...
Using Lindh-Hessian (1995)
 Shifting diagonal of input Hessian by    9.8727571233506624E-003
 Lowest  eigenvalues of input Hessian
    0.000000    0.000000    0.000000    0.000000    0.000000    0.000000
    0.010000    0.010107    0.010516    0.010830    0.011079    0.011255
    0.011623    0.011802    0.013912    0.016235    0.022320    0.025472
 Highest eigenvalues
    1.721045    1.897995    1.926730    2.045477    2.117832    2.153302


........................................................................
.............................. CYCLE   67 ..............................
........................................................................

 iter      E             dE          RMSdq      gap      omega  full diag
   1    -48.2434951 -0.482435E+02  0.794E-02    1.43       0.0  T
   2    -48.2434960 -0.870974E-06  0.471E-02    1.43       1.0  T
   3    -48.2434956  0.365488E-06  0.612E-03    1.43       3.0  T
   4    -48.2434963 -0.713649E-06  0.185E-03    1.43      10.0  T
   5    -48.2434963 -0.959575E-08  0.969E-04    1.43      19.2  T
   6    -48.2434963 -0.197868E-08  0.338E-04    1.43      54.9  T
     SCC iter.                  ...        0 min,  0.045 sec
     gradient                   ...        0 min,  0.033 sec
 * total energy  :   -47.6727458 Eh     change       -0.7299814E-04 Eh
   gradient norm :     0.0087459 Eh/α   predicted     0.0000000E+00 (-100.00%)
   displ. norm   :     0.0589663 α      lambda       -0.8326674E-04
   maximum displ.:     0.0474763 α      in ANC's #3, #7, #8, ...

........................................................................
.............................. CYCLE   68 ..............................
........................................................................

 iter      E             dE          RMSdq      gap      omega  full diag
   1    -48.2454316 -0.482454E+02  0.355E-02    1.43       0.0  T
   2    -48.2454322 -0.660933E-06  0.208E-02    1.43       1.0  T
   3    -48.2454321  0.163175E-06  0.394E-03    1.43       4.7  T
   4    -48.2454323 -0.252104E-06  0.915E-04    1.43      20.3  T
   5    -48.2454323 -0.812604E-08  0.415E-04    1.43      44.7  T
     SCC iter.                  ...        0 min,  0.024 sec
     gradient                   ...        0 min,  0.036 sec
 * total energy  :   -47.6728394 Eh     change       -0.9364472E-04 Eh
   gradient norm :     0.0028524 Eh/α   predicted    -0.6022608E-04 ( -35.69%)
   displ. norm   :     0.1377525 α      lambda       -0.1456794E-03
   maximum displ.:     0.1100998 α      in ANC's #3, #7, #8, ...

........................................................................
.............................. CYCLE   69 ..............................
........................................................................

 iter      E             dE          RMSdq      gap      omega  full diag
   1    -48.2467234 -0.482467E+02  0.809E-02    1.42       0.0  T
   2    -48.2467239 -0.548032E-06  0.473E-02    1.42       1.0  T
   3    -48.2467240 -0.122328E-06  0.246E-03    1.42       7.5  T
   4    -48.2467241 -0.507613E-07  0.136E-03    1.42      13.6  T
   5    -48.2467241 -0.971480E-08  0.588E-04    1.42      31.6  T
   6    -48.2467241 -0.127687E-08  0.184E-04    1.42     100.9  T
     SCC iter.                  ...        0 min,  0.029 sec
     gradient                   ...        0 min,  0.033 sec
 * total energy  :   -47.6729542 Eh     change       -0.1147326E-03 Eh
   gradient norm :     0.0028046 Eh/α   predicted    -0.7422364E-04 ( -35.31%)
   displ. norm   :     0.2141940 α      lambda       -0.1535151E-03
   maximum displ.:     0.1685995 α      in ANC's #3, #8, #7, ...

........................................................................
.............................. CYCLE   70 ..............................
........................................................................

 iter      E             dE          RMSdq      gap      omega  full diag
   1    -48.2460552 -0.482461E+02  0.129E-01    1.41       0.0  T
   2    -48.2460567 -0.148688E-05  0.749E-02    1.41       1.0  T
   3    -48.2460567 -0.710942E-08  0.544E-03    1.41       3.4  T
   4    -48.2460572 -0.471964E-06  0.224E-03    1.40       8.3  T
   5    -48.2460572 -0.151447E-07  0.101E-03    1.40      18.4  T
   6    -48.2460572 -0.203326E-08  0.258E-04    1.40      72.0  T
   7    -48.2460572 -0.263611E-09  0.148E-04    1.40     125.8  T
     SCC iter.                  ...        0 min,  0.033 sec
     gradient                   ...        0 min,  0.033 sec
 * total energy  :   -47.6730813 Eh     change       -0.1271030E-03 Eh
   gradient norm :     0.0056084 Eh/α   predicted    -0.8034307E-04 ( -36.79%)
   displ. norm   :     0.2519714 α      lambda       -0.1553048E-03
   maximum displ.:     0.1915366 α      in ANC's #3, #8, #7, ...

........................................................................
.............................. CYCLE   71 ..............................
........................................................................

 iter      E             dE          RMSdq      gap      omega  full diag
   1    -48.2439963 -0.482440E+02  0.144E-01    1.40       0.0  T
   2    -48.2439986 -0.229089E-05  0.834E-02    1.40       1.0  T
   3    -48.2439981  0.437099E-06  0.784E-03    1.40       2.4  T
   4    -48.2439993 -0.111659E-05  0.255E-03    1.40       7.3  T
   5    -48.2439993 -0.178344E-07  0.125E-03    1.40      14.9  T
   6    -48.2439993 -0.254280E-08  0.278E-04    1.40      66.8  T
   7    -48.2439993 -0.504251E-09  0.167E-04    1.40     111.4  T
     SCC iter.                  ...        0 min,  0.044 sec
     gradient                   ...        0 min,  0.034 sec
 * total energy  :   -47.6731955 Eh     change       -0.1142719E-03 Eh
   gradient norm :     0.0118295 Eh/α   predicted    -0.8258460E-04 ( -27.73%)
   displ. norm   :     0.2781124 α      lambda       -0.1845339E-03
   maximum displ.:     0.2063099 α      in ANC's #3, #2, #11, ...

........................................................................
.............................. CYCLE   72 ..............................
........................................................................

 iter      E             dE          RMSdq      gap      omega  full diag
   1    -48.2420583 -0.482421E+02  0.122E-01    1.41       0.0  T
   2    -48.2420594 -0.105940E-05  0.715E-02    1.41       1.0  T
   3    -48.2420596 -0.143862E-06  0.474E-03    1.40       3.9  T
   4    -48.2420599 -0.305569E-06  0.224E-03    1.40       8.3  T
   5    -48.2420599 -0.100109E-07  0.734E-04    1.40      25.3  T
   6    -48.2420599 -0.247192E-08  0.275E-04    1.40      67.5  T
     SCC iter.                  ...        0 min,  0.123 sec
     gradient                   ...        0 min,  0.033 sec
 * total energy  :   -47.6733288 Eh     change       -0.1332502E-03 Eh
   gradient norm :     0.0149460 Eh/α   predicted    -0.9940592E-04 ( -25.40%)
   displ. norm   :     0.2951279 α      lambda       -0.3404401E-03
   maximum displ.:     0.1988417 α      in ANC's #3, #5, #2, ...

........................................................................
.............................. CYCLE   73 ..............................
........................................................................

 iter      E             dE          RMSdq      gap      omega  full diag
   1    -48.2429614 -0.482430E+02  0.733E-02    1.44       0.0  T
   2    -48.2429673 -0.596916E-05  0.440E-02    1.44       1.0  T
   3    -48.2429663  0.104712E-05  0.121E-02    1.44       1.5  T
   4    -48.2429682 -0.187991E-05  0.297E-03    1.44       6.3  T
   5    -48.2429682 -0.877474E-07  0.119E-03    1.44      15.5  T
   6    -48.2429682 -0.144159E-08  0.341E-04    1.44      54.5  T
   7    -48.2429682 -0.133066E-08  0.161E-04    1.44     115.6  T
     SCC iter.                  ...        0 min,  0.034 sec
     gradient                   ...        0 min,  0.033 sec
 * total energy  :   -47.6735572 Eh     change       -0.2284107E-03 Eh
   gradient norm :     0.0085140 Eh/α   predicted    -0.1850544E-03 ( -18.98%)
   displ. norm   :     0.4460540 α      lambda       -0.3210664E-03
   maximum displ.:     0.3221913 α      in ANC's #3, #2, #5, ...

........................................................................
.............................. CYCLE   74 ..............................
........................................................................

 iter      E             dE          RMSdq      gap      omega  full diag
   1    -48.2412609 -0.482413E+02  0.142E-01    1.46       0.0  T
   2    -48.2412633 -0.237212E-05  0.836E-02    1.46       1.0  T
   3    -48.2412634 -0.151633E-06  0.680E-03    1.46       2.7  T
   4    -48.2412641 -0.661949E-06  0.330E-03    1.46       5.6  T
   5    -48.2412641 -0.554946E-07  0.115E-03    1.46      16.2  T
   6    -48.2412641 -0.250514E-08  0.477E-04    1.46      38.9  T
   7    -48.2412641 -0.199201E-08  0.211E-04    1.46      88.1  T
     SCC iter.                  ...        0 min,  0.032 sec
     gradient                   ...        0 min,  0.020 sec
 * total energy  :   -47.6738052 Eh     change       -0.2480494E-03 Eh
   gradient norm :     0.0122828 Eh/α   predicted    -0.1925898E-03 ( -22.36%)
   displ. norm   :     0.4680527 α      lambda       -0.6072809E-03
   maximum displ.:     0.2972873 α      in ANC's #3, #5, #2, ...

........................................................................
.............................. CYCLE   75 ..............................
........................................................................

 iter      E             dE          RMSdq      gap      omega  full diag
   1    -48.2457419 -0.482457E+02  0.956E-02    1.50       0.0  T
   2    -48.2457496 -0.767174E-05  0.575E-02    1.50       1.0  T
   3    -48.2457482  0.146147E-05  0.136E-02    1.49       1.4  T
   4    -48.2457509 -0.277035E-05  0.406E-03    1.49       4.6  T
   5    -48.2457511 -0.143306E-06  0.170E-03    1.49      10.9  T
   6    -48.2457511 -0.535467E-08  0.680E-04    1.49      27.3  T
   7    -48.2457511 -0.313203E-08  0.341E-04    1.49      54.5  T
     SCC iter.                  ...        0 min,  0.016 sec
     gradient                   ...        0 min,  0.011 sec
 * total energy  :   -47.6742200 Eh     change       -0.4147450E-03 Eh
   gradient norm :     0.0129056 Eh/α   predicted    -0.3701813E-03 ( -10.74%)
   displ. norm   :     0.4766508 α      lambda       -0.4677623E-03
   maximum displ.:     0.2940803 α      in ANC's #3, #5, #2, ...

........................................................................
.............................. CYCLE   76 ..............................
........................................................................

 iter      E             dE          RMSdq      gap      omega  full diag
   1    -48.2442660 -0.482443E+02  0.118E-01    1.51       0.0  T
   2    -48.2442695 -0.348077E-05  0.691E-02    1.51       1.0  T
   3    -48.2442694  0.826024E-07  0.825E-03    1.51       2.3  T
   4    -48.2442703 -0.854935E-06  0.331E-03    1.51       5.6  T
   5    -48.2442704 -0.725589E-07  0.159E-03    1.51      11.7  T
   6    -48.2442704 -0.572748E-08  0.531E-04    1.51      35.0  T
   7    -48.2442704 -0.216352E-08  0.245E-04    1.51      75.6  T
     SCC iter.                  ...        0 min,  0.035 sec
     gradient                   ...        0 min,  0.014 sec
 * total energy  :   -47.6746072 Eh     change       -0.3872379E-03 Eh
   gradient norm :     0.0191519 Eh/α   predicted    -0.2870407E-03 ( -25.87%)
   displ. norm   :     0.5482555 α      lambda       -0.1333780E-02
   maximum displ.:     0.2248282 α      in ANC's #2, #5, #4, ...

........................................................................
.............................. CYCLE   77 ..............................
........................................................................

 iter      E             dE          RMSdq      gap      omega  full diag
   1    -48.2526151 -0.482526E+02  0.130E-01    1.54       0.0  T
   2    -48.2526239 -0.880486E-05  0.778E-02    1.53       1.0  T
   3    -48.2526226  0.123636E-05  0.138E-02    1.53       1.3  T
   4    -48.2526257 -0.310448E-05  0.444E-03    1.53       4.2  T
   5    -48.2526259 -0.108120E-06  0.220E-03    1.53       8.4  T
   6    -48.2526259 -0.774136E-08  0.801E-04    1.53      23.2  T
   7    -48.2526259 -0.481615E-08  0.324E-04    1.53      57.4  T
     SCC iter.                  ...        0 min,  0.054 sec
     gradient                   ...        0 min,  0.013 sec
 * total energy  :   -47.6750319 Eh     change       -0.4246317E-03 Eh
   gradient norm :     0.0181002 Eh/α   predicted    -0.8673632E-03 ( 104.26%)
   displ. norm   :     0.5831082 α      lambda       -0.1274396E-02
   maximum displ.:     0.3544607 α      in ANC's #3, #5, #2, ...

........................................................................
.............................. CYCLE   78 ..............................
........................................................................

 iter      E             dE          RMSdq      gap      omega  full diag
   1    -48.2424935 -0.482425E+02  0.163E-01    1.53       0.0  T
   2    -48.2425072 -0.137541E-04  0.939E-02    1.52       1.0  T
   3    -48.2425041  0.314170E-05  0.212E-02    1.52       1.0  T
   4    -48.2425106 -0.651610E-05  0.551E-03    1.52       3.4  T
   5    -48.2425107 -0.119921E-06  0.298E-03    1.52       6.2  T
   6    -48.2425108 -0.131290E-07  0.822E-04    1.52      22.6  T
   7    -48.2425108 -0.717936E-08  0.394E-04    1.52      47.1  T
     SCC iter.                  ...        0 min,  0.184 sec
     gradient                   ...        0 min,  0.018 sec
 * total energy  :   -47.6757534 Eh     change       -0.7215344E-03 Eh
   gradient norm :     0.0285112 Eh/α   predicted    -0.8538692E-03 (  18.34%)
   displ. norm   :     0.1057492 α      lambda       -0.6285746E-03
   maximum displ.:     0.0566317 α      in ANC's #4, #2, #6, ...

........................................................................
.............................. CYCLE   79 ..............................
........................................................................

 iter      E             dE          RMSdq      gap      omega  full diag
   1    -48.2422134 -0.482422E+02  0.481E-02    1.54       0.0  T
   2    -48.2422207 -0.728371E-05  0.276E-02    1.54       1.0  T
   3    -48.2422208 -0.158528E-06  0.139E-02    1.54       1.3  T
   4    -48.2422220 -0.116548E-05  0.280E-03    1.54       6.6  T
   5    -48.2422221 -0.880628E-07  0.107E-03    1.54      17.3  T
   6    -48.2422221 -0.343269E-08  0.507E-04    1.54      36.6  T
   7    -48.2422221 -0.138567E-08  0.271E-04    1.54      68.5  T
     SCC iter.                  ...        0 min,  0.022 sec
     gradient                   ...        0 min,  0.011 sec
 * total energy  :   -47.6761231 Eh     change       -0.3696857E-03 Eh
   gradient norm :     0.0128756 Eh/α   predicted    -0.3178125E-03 ( -14.03%)
   displ. norm   :     0.4533297 α      lambda       -0.7781476E-03
   maximum displ.:     0.2651531 α      in ANC's #2, #1, #3, ...

........................................................................
.............................. CYCLE   80 ..............................
........................................................................

 iter      E             dE          RMSdq      gap      omega  full diag
   1    -48.2405728 -0.482406E+02  0.128E-01    1.54       0.0  T
   2    -48.2405815 -0.876840E-05  0.747E-02    1.53       1.0  T
   3    -48.2405774  0.409757E-05  0.192E-02    1.53       1.0  T
   4    -48.2405844 -0.693168E-05  0.427E-03    1.53       4.4  T
   5    -48.2405844 -0.326323E-07  0.212E-03    1.53       8.7  T
   6    -48.2405844 -0.130359E-07  0.603E-04    1.53      30.8  T
   7    -48.2405844 -0.219464E-08  0.291E-04    1.53      63.8  T
     SCC iter.                  ...        0 min,  0.041 sec
     gradient                   ...        0 min,  0.017 sec
 * total energy  :   -47.6766910 Eh     change       -0.5678931E-03 Eh
   gradient norm :     0.0132890 Eh/α   predicted    -0.4690353E-03 ( -17.41%)
   displ. norm   :     0.3119234 α      lambda       -0.6101041E-03
   maximum displ.:     0.2036886 α      in ANC's #2, #1, #8, ...

........................................................................
.............................. CYCLE   81 ..............................
........................................................................

 iter      E             dE          RMSdq      gap      omega  full diag
   1    -48.2428804 -0.482429E+02  0.107E-01    1.51       0.0  T
   2    -48.2428843 -0.396267E-05  0.628E-02    1.51       1.0  T
   3    -48.2428818  0.255907E-05  0.141E-02    1.51       1.3  T
   4    -48.2428857 -0.395131E-05  0.313E-03    1.51       5.9  T
   5    -48.2428857 -0.224929E-07  0.161E-03    1.51      11.5  T
   6    -48.2428858 -0.120473E-07  0.667E-04    1.51      27.8  T
   7    -48.2428858 -0.217727E-08  0.261E-04    1.51      71.2  T
     SCC iter.                  ...        0 min,  0.049 sec
     gradient                   ...        0 min,  0.010 sec
 * total energy  :   -47.6770658 Eh     change       -0.3748242E-03 Eh
   gradient norm :     0.0135738 Eh/α   predicted    -0.3347385E-03 ( -10.69%)
   displ. norm   :     0.4431178 α      lambda       -0.5142924E-03
   maximum displ.:     0.2807081 α      in ANC's #2, #1, #3, ...

........................................................................
.............................. CYCLE   82 ..............................
........................................................................

 iter      E             dE          RMSdq      gap      omega  full diag
   1    -48.2395039 -0.482395E+02  0.139E-01    1.48       0.0  T
   2    -48.2395123 -0.833969E-05  0.797E-02    1.48       1.0  T
   3    -48.2395075  0.482085E-05  0.204E-02    1.48       1.0  T
   4    -48.2395150 -0.754125E-05  0.390E-03    1.48       4.8  T
   5    -48.2395150 -0.326282E-07  0.195E-03    1.48       9.5  T
   6    -48.2395150 -0.594759E-08  0.514E-04    1.48      36.1  T
   7    -48.2395150 -0.203527E-08  0.296E-04    1.48      62.7  T
     SCC iter.                  ...        0 min,  0.015 sec
     gradient                   ...        0 min,  0.011 sec
 * total energy  :   -47.6773416 Eh     change       -0.2758373E-03 Eh
   gradient norm :     0.0182347 Eh/α   predicted    -0.3076376E-03 (  11.53%)
   displ. norm   :     0.3064636 α      lambda       -0.7264656E-03
   maximum displ.:     0.1666737 α      in ANC's #4, #2, #6, ...

........................................................................
.............................. CYCLE   83 ..............................
........................................................................

 iter      E             dE          RMSdq      gap      omega  full diag
   1    -48.2442677 -0.482443E+02  0.111E-01    1.48       0.0  T
   2    -48.2442736 -0.598352E-05  0.656E-02    1.48       1.0  T
   3    -48.2442710  0.263825E-05  0.142E-02    1.48       1.3  T
   4    -48.2442750 -0.397785E-05  0.309E-03    1.48       6.0  T
   5    -48.2442751 -0.746900E-07  0.152E-03    1.48      12.2  T
   6    -48.2442751 -0.844268E-08  0.640E-04    1.48      29.0  T
   7    -48.2442751 -0.210767E-08  0.285E-04    1.48      65.3  T
     SCC iter.                  ...        0 min,  0.035 sec
     gradient                   ...        0 min,  0.011 sec
 * total energy  :   -47.6778084 Eh     change       -0.4668151E-03 Eh
   gradient norm :     0.0130825 Eh/α   predicted    -0.3973496E-03 ( -14.88%)
   displ. norm   :     0.2754433 α      lambda       -0.3543541E-03
   maximum displ.:     0.1674777 α      in ANC's #2, #4, #8, ...

........................................................................
.............................. CYCLE   84 ..............................
........................................................................

 iter      E             dE          RMSdq      gap      omega  full diag
   1    -48.2456389 -0.482456E+02  0.107E-01    1.50       0.0  T
   2    -48.2456423 -0.337235E-05  0.621E-02    1.49       1.0  T
   3    -48.2456425 -0.202364E-06  0.574E-03    1.49       3.2  T
   4    -48.2456429 -0.371465E-06  0.273E-03    1.49       6.8  T
   5    -48.2456429 -0.550260E-07  0.122E-03    1.49      15.2  T
   6    -48.2456429 -0.779628E-08  0.456E-04    1.49      40.7  T
   7    -48.2456429 -0.816655E-09  0.215E-04    1.49      86.4  T
     SCC iter.                  ...        0 min,  0.020 sec
     gradient                   ...        0 min,  0.011 sec
 * total energy  :   -47.6780357 Eh     change       -0.2272303E-03 Eh
   gradient norm :     0.0109192 Eh/α   predicted    -0.1906293E-03 ( -16.11%)
   displ. norm   :     0.4065168 α      lambda       -0.4818763E-03
   maximum displ.:     0.2653617 α      in ANC's #2, #4, #1, ...

........................................................................
.............................. CYCLE   85 ..............................
........................................................................

 iter      E             dE          RMSdq      gap      omega  full diag
   1    -48.2442531 -0.482443E+02  0.160E-01    1.46       0.0  T
   2    -48.2442565 -0.341223E-05  0.931E-02    1.46       1.0  T
   3    -48.2442567 -0.207608E-06  0.684E-03    1.46       2.7  T
   4    -48.2442574 -0.682963E-06  0.333E-03    1.46       5.6  T
   5    -48.2442575 -0.704708E-07  0.139E-03    1.46      13.3  T
   6    -48.2442575 -0.644393E-08  0.583E-04    1.46      31.8  T
   7    -48.2442575 -0.137922E-08  0.270E-04    1.46      68.9  T
     SCC iter.                  ...        0 min,  0.022 sec
     gradient                   ...        0 min,  0.010 sec
 * total energy  :   -47.6782196 Eh     change       -0.1839065E-03 Eh
   gradient norm :     0.0159156 Eh/α   predicted    -0.2807569E-03 (  52.66%)
   displ. norm   :     0.1145414 α      lambda       -0.2670196E-03
   maximum displ.:     0.0612540 α      in ANC's #8, #2, #5, ...

........................................................................
.............................. CYCLE   86 ..............................
........................................................................

 iter      E             dE          RMSdq      gap      omega  full diag
   1    -48.2451724 -0.482452E+02  0.470E-02    1.46       0.0  T
   2    -48.2451740 -0.154521E-05  0.272E-02    1.46       1.0  T
   3    -48.2451737  0.221291E-06  0.540E-03    1.46       3.4  T
   4    -48.2451742 -0.449865E-06  0.184E-03    1.46      10.1  T
   5    -48.2451742 -0.367582E-07  0.619E-04    1.46      30.0  T
   6    -48.2451742 -0.887319E-09  0.281E-04    1.46      66.1  T
     SCC iter.                  ...        0 min,  0.028 sec
     gradient                   ...        0 min,  0.012 sec
 * total energy  :   -47.6783988 Eh     change       -0.1791691E-03 Eh
   gradient norm :     0.0061487 Eh/α   predicted    -0.1352643E-03 ( -24.50%)
   displ. norm   :     0.2077303 α      lambda       -0.1669152E-03
   maximum displ.:     0.1396005 α      in ANC's #2, #8, #1, ...

........................................................................
.............................. CYCLE   87 ..............................
........................................................................

 iter      E             dE          RMSdq      gap      omega  full diag
   1    -48.2444255 -0.482444E+02  0.925E-02    1.45       0.0  T
   2    -48.2444268 -0.129336E-05  0.537E-02    1.45       1.0  T
   3    -48.2444265  0.248612E-06  0.566E-03    1.45       3.3  T
   4    -48.2444271 -0.589683E-06  0.184E-03    1.45      10.1  T
   5    -48.2444271 -0.143481E-07  0.901E-04    1.45      20.6  T
   6    -48.2444271 -0.157895E-08  0.318E-04    1.45      58.5  T
     SCC iter.                  ...        0 min,  0.168 sec
     gradient                   ...        0 min,  0.021 sec
 * total energy  :   -47.6785145 Eh     change       -0.1157900E-03 Eh
   gradient norm :     0.0064942 Eh/α   predicted    -0.8706339E-04 ( -24.81%)
   displ. norm   :     0.1982272 α      lambda       -0.2007232E-03
   maximum displ.:     0.1153702 α      in ANC's #2, #8, #7, ...

........................................................................
.............................. CYCLE   88 ..............................
........................................................................

 iter      E             dE          RMSdq      gap      omega  full diag
   1    -48.2483568 -0.482484E+02  0.911E-02    1.45       0.0  T
   2    -48.2483603 -0.347476E-05  0.529E-02    1.45       1.0  T
   3    -48.2483595  0.804964E-06  0.880E-03    1.45       2.1  T
   4    -48.2483608 -0.127184E-05  0.259E-03    1.45       7.2  T
   5    -48.2483609 -0.741916E-07  0.109E-03    1.45      17.0  T
   6    -48.2483609 -0.182244E-08  0.430E-04    1.45      43.2  T
   7    -48.2483609 -0.147873E-08  0.186E-04    1.45      99.9  T
     SCC iter.                  ...        0 min,  0.034 sec
     gradient                   ...        0 min,  0.015 sec
 * total energy  :   -47.6786230 Eh     change       -0.1084612E-03 Eh
   gradient norm :     0.0083510 Eh/α   predicted    -0.1043103E-03 (  -3.83%)
   displ. norm   :     0.3683502 α      lambda       -0.2433953E-03
   maximum displ.:     0.2463662 α      in ANC's #2, #8, #5, ...

........................................................................
.............................. CYCLE   89 ..............................
........................................................................

 iter      E             dE          RMSdq      gap      omega  full diag
   1    -48.2441267 -0.482441E+02  0.197E-01    1.42       0.0  T
   2    -48.2441363 -0.965491E-05  0.114E-01    1.42       1.0  T
   3    -48.2441343  0.201838E-05  0.138E-02    1.42       1.3  T
   4    -48.2441378 -0.348251E-05  0.423E-03    1.42       4.4  T
   5    -48.2441380 -0.174671E-06  0.192E-03    1.42       9.7  T
   6    -48.2441380 -0.405830E-08  0.569E-04    1.42      32.6  T
   7    -48.2441380 -0.180894E-08  0.310E-04    1.42      59.9  T
     SCC iter.                  ...        0 min,  0.043 sec
     gradient                   ...        0 min,  0.024 sec
 * total energy  :   -47.6787320 Eh     change       -0.1089493E-03 Eh
   gradient norm :     0.0129035 Eh/α   predicted    -0.1382152E-03 (  26.86%)
   displ. norm   :     0.0790043 α      lambda       -0.1808204E-03
   maximum displ.:     0.0354540 α      in ANC's #2, #6, #9, ...

........................................................................
.............................. CYCLE   90 ..............................
........................................................................

 iter      E             dE          RMSdq      gap      omega  full diag
   1    -48.2453175 -0.482453E+02  0.349E-02    1.43       0.0  T
   2    -48.2453197 -0.216917E-05  0.203E-02    1.42       1.0  T
   3    -48.2453198 -0.396406E-07  0.489E-03    1.42       3.8  T
   4    -48.2453198 -0.756507E-07  0.150E-03    1.42      12.4  T
   5    -48.2453199 -0.278205E-07  0.683E-04    1.42      27.2  T
   6    -48.2453199 -0.166233E-08  0.266E-04    1.42      69.8  T
     SCC iter.                  ...        0 min,  0.307 sec
     gradient                   ...        0 min,  0.011 sec
 * total energy  :   -47.6788633 Eh     change       -0.1313207E-03 Eh
   gradient norm :     0.0070017 Eh/α   predicted    -0.9097684E-04 ( -30.72%)
   displ. norm   :     0.2081467 α      lambda       -0.1737892E-03
   maximum displ.:     0.1128910 α      in ANC's #2, #6, #9, ...

........................................................................
.............................. CYCLE   91 ..............................
........................................................................

 iter      E             dE          RMSdq      gap      omega  full diag
   1    -48.2462581 -0.482463E+02  0.105E-01    1.43       0.0  T
   2    -48.2462597 -0.165720E-05  0.614E-02    1.43       1.0  T
   3    -48.2462596  0.179952E-06  0.607E-03    1.43       3.1  T
   4    -48.2462602 -0.642176E-06  0.216E-03    1.42       8.6  T
   5    -48.2462602 -0.160284E-07  0.967E-04    1.42      19.2  T
   6    -48.2462602 -0.162187E-08  0.297E-04    1.42      62.6  T
     SCC iter.                  ...        0 min,  0.011 sec
     gradient                   ...        0 min,  0.011 sec
 * total energy  :   -47.6789738 Eh     change       -0.1105052E-03 Eh
   gradient norm :     0.0043898 Eh/α   predicted    -0.9066214E-04 ( -17.96%)
   displ. norm   :     0.1625015 α      lambda       -0.5875404E-04
   maximum displ.:     0.1131637 α      in ANC's #2, #8, #6, ...

........................................................................
.............................. CYCLE   92 ..............................
........................................................................

 iter      E             dE          RMSdq      gap      omega  full diag
   1    -48.2450129 -0.482450E+02  0.757E-02    1.42       0.0  T
   2    -48.2450136 -0.699455E-06  0.441E-02    1.42       1.0  T
   3    -48.2450134  0.203812E-06  0.483E-03    1.42       3.8  T
   4    -48.2450138 -0.447507E-06  0.151E-03    1.42      12.3  T
   5    -48.2450138 -0.407015E-08  0.576E-04    1.42      32.2  T
   6    -48.2450138 -0.795268E-09  0.243E-04    1.42      76.5  T
     SCC iter.                  ...        0 min,  0.013 sec
     gradient                   ...        0 min,  0.023 sec
 * total energy  :   -47.6790173 Eh     change       -0.4351182E-04 Eh
   gradient norm :     0.0040056 Eh/α   predicted    -0.3015536E-04 ( -30.70%)
   displ. norm   :     0.1765690 α      lambda       -0.8118174E-04
   maximum displ.:     0.1058576 α      in ANC's #2, #6, #8, ...
 * RMSD in coord.:     0.9900206 α      energy gain  -0.6344509E-02 Eh

generating ANC from exact Hessian ...
Using Lindh-Hessian (1995)
 Shifting diagonal of input Hessian by    9.7059474976506892E-003
 Lowest  eigenvalues of input Hessian
    0.000000    0.000000    0.000000    0.000000    0.000000    0.000000
    0.010000    0.010142    0.010760    0.011067    0.011448    0.011879
    0.012878    0.013799    0.016099    0.021534    0.023549    0.025423
 Highest eigenvalues
    1.699740    1.896817    1.922934    2.041224    2.143428    2.154879


........................................................................
.............................. CYCLE   93 ..............................
........................................................................

 iter      E             dE          RMSdq      gap      omega  full diag
   1    -48.2457942 -0.482458E+02  0.734E-02    1.41       0.0  T
   2    -48.2457957 -0.152310E-05  0.429E-02    1.41       1.0  T
   3    -48.2457947  0.101264E-05  0.838E-03    1.41       2.2  T
   4    -48.2457962 -0.146570E-05  0.178E-03    1.41      10.4  T
   5    -48.2457962 -0.714878E-08  0.864E-04    1.41      21.5  T
   6    -48.2457962 -0.197726E-08  0.370E-04    1.41      50.2  T
     SCC iter.                  ...        0 min,  0.126 sec
     gradient                   ...        0 min,  0.023 sec
 * total energy  :   -47.6790692 Eh     change       -0.5192275E-04 Eh
   gradient norm :     0.0030098 Eh/α   predicted     0.0000000E+00 (-100.00%)
   displ. norm   :     0.0568451 α      lambda       -0.9121504E-05
   maximum displ.:     0.0334100 α      in ANC's #2, #3, #1, ...

........................................................................
.............................. CYCLE   94 ..............................
........................................................................

 iter      E             dE          RMSdq      gap      omega  full diag
   1    -48.2461884 -0.482462E+02  0.294E-02    1.41       0.0  T
   2    -48.2461885 -0.126440E-06  0.173E-02    1.41       1.1  T
   3    -48.2461884  0.683746E-07  0.243E-03    1.41       7.6  T
   4    -48.2461886 -0.116533E-06  0.667E-04    1.41      27.8  T
   5    -48.2461886 -0.142297E-08  0.313E-04    1.41      59.3  T
     SCC iter.                  ...        0 min,  0.073 sec
     gradient                   ...        0 min,  0.021 sec
 * total energy  :   -47.6791167 Eh     change       -0.4753129E-04 Eh
   gradient norm :     0.0014384 Eh/α   predicted    -0.2767989E-04 ( -41.76%)
   displ. norm   :     0.2680071 α      lambda       -0.1196042E-03
   maximum displ.:     0.1508957 α      in ANC's #2, #3, #1, ...

........................................................................
.............................. CYCLE   95 ..............................
........................................................................

 iter      E             dE          RMSdq      gap      omega  full diag
   1    -48.2457780 -0.482458E+02  0.132E-01    1.41       0.0  T
   2    -48.2457805 -0.247353E-05  0.777E-02    1.41       1.0  T
   3    -48.2457796  0.877816E-06  0.938E-03    1.41       2.0  T
   4    -48.2457813 -0.165098E-05  0.289E-03    1.41       6.4  T
   5    -48.2457813 -0.434809E-07  0.142E-03    1.41      13.1  T
   6    -48.2457813 -0.287176E-08  0.524E-04    1.41      35.5  T
   7    -48.2457813 -0.241703E-08  0.238E-04    1.41      77.9  T
     SCC iter.                  ...        0 min,  0.018 sec
     gradient                   ...        0 min,  0.020 sec
 * total energy  :   -47.6792327 Eh     change       -0.1159560E-03 Eh
   gradient norm :     0.0053377 Eh/α   predicted    -0.6171292E-04 ( -46.78%)
   displ. norm   :     0.1485060 α      lambda       -0.7338816E-04
   maximum displ.:     0.0861445 α      in ANC's #2, #3, #1, ...

........................................................................
.............................. CYCLE   96 ..............................
........................................................................

 iter      E             dE          RMSdq      gap      omega  full diag
   1    -48.2455431 -0.482455E+02  0.621E-02    1.41       0.0  T
   2    -48.2455434 -0.267753E-06  0.368E-02    1.41       1.0  T
   3    -48.2455434 -0.260887E-07  0.261E-03    1.41       7.1  T
   4    -48.2455435 -0.100454E-06  0.118E-03    1.41      15.8  T
   5    -48.2455435 -0.396171E-08  0.528E-04    1.41      35.1  T
   6    -48.2455435 -0.573337E-09  0.143E-04    1.41     130.2  T
     SCC iter.                  ...        0 min,  0.031 sec
     gradient                   ...        0 min,  0.020 sec
 * total energy  :   -47.6792992 Eh     change       -0.6649865E-04 Eh
   gradient norm :     0.0052604 Eh/α   predicted    -0.3750874E-04 ( -43.59%)
   displ. norm   :     0.3420249 α      lambda       -0.1768272E-03
   maximum displ.:     0.1991573 α      in ANC's #2, #3, #1, ...

........................................................................
.............................. CYCLE   97 ..............................
........................................................................

 iter      E             dE          RMSdq      gap      omega  full diag
   1    -48.2443930 -0.482444E+02  0.130E-01    1.40       0.0  T
   2    -48.2443943 -0.131907E-05  0.771E-02    1.40       1.0  T
   3    -48.2443944 -0.579139E-07  0.576E-03    1.40       3.2  T
   4    -48.2443949 -0.575873E-06  0.256E-03    1.40       7.3  T
   5    -48.2443950 -0.148391E-07  0.101E-03    1.40      18.4  T
   6    -48.2443950 -0.271319E-08  0.361E-04    1.40      51.5  T
   7    -48.2443950 -0.129996E-08  0.167E-04    1.40     111.0  T
     SCC iter.                  ...        0 min,  0.118 sec
     gradient                   ...        0 min,  0.011 sec
 * total energy  :   -47.6794237 Eh     change       -0.1244653E-03 Eh
   gradient norm :     0.0056813 Eh/α   predicted    -0.9876690E-04 ( -20.65%)
   displ. norm   :     0.3396763 α      lambda        0.3456042E-04
   maximum displ.:     0.1977301 α      in ANC's #2, #3, #1, ...

........................................................................
.............................. CYCLE   98 ..............................
........................................................................

 iter      E             dE          RMSdq      gap      omega  full diag
   1    -48.2404052 -0.482404E+02  0.131E-01    1.37       0.0  T
   2    -48.2404081 -0.286278E-05  0.778E-02    1.38       1.0  T
   3    -48.2404080  0.862344E-07  0.700E-03    1.38       2.7  T
   4    -48.2404088 -0.795952E-06  0.284E-03    1.38       6.5  T
   5    -48.2404088 -0.418937E-07  0.161E-03    1.38      11.5  T
   6    -48.2404088 -0.388859E-08  0.391E-04    1.38      47.5  T
   7    -48.2404088 -0.173598E-08  0.184E-04    1.38     100.9  T
     SCC iter.                  ...        0 min,  0.018 sec
     gradient                   ...        0 min,  0.010 sec
 * total energy  :   -47.6793160 Eh     change        0.1076362E-03 Eh
   gradient norm :     0.0137703 Eh/α   predicted     0.1927116E-04 ( -82.10%)
   displ. norm   :     0.1759260 α      lambda       -0.3515660E-03
   maximum displ.:     0.1092476 α      in ANC's #3, #2, #5, ...

........................................................................
.............................. CYCLE   99 ..............................
........................................................................

 iter      E             dE          RMSdq      gap      omega  full diag
   1    -48.2456715 -0.482457E+02  0.885E-02    1.41       0.0  T
   2    -48.2456765 -0.504189E-05  0.514E-02    1.40       1.0  T
   3    -48.2456766 -0.128723E-06  0.701E-03    1.40       2.6  T
   4    -48.2456768 -0.192450E-06  0.219E-03    1.40       8.5  T
   5    -48.2456769 -0.439303E-07  0.119E-03    1.40      15.6  T
   6    -48.2456769 -0.386406E-08  0.325E-04    1.40      57.1  T
   7    -48.2456769 -0.420528E-09  0.147E-04    1.40     126.2  T
     SCC iter.                  ...        0 min,  0.020 sec
     gradient                   ...        0 min,  0.011 sec
 * total energy  :   -47.6794940 Eh     change       -0.1779643E-03 Eh
   gradient norm :     0.0049167 Eh/α   predicted    -0.1812238E-03 (   1.83%)
   displ. norm   :     0.0509497 α      lambda       -0.4822380E-04
   maximum displ.:     0.0351907 α      in ANC's #2, #1, #4, ...

........................................................................
.............................. CYCLE  100 ..............................
........................................................................

 iter      E             dE          RMSdq      gap      omega  full diag
   1    -48.2463238 -0.482463E+02  0.178E-02    1.40       0.0  T
   2    -48.2463240 -0.174235E-06  0.104E-02    1.40       1.8  T
   3    -48.2463239  0.489075E-07  0.230E-03    1.40       8.1  T
   4    -48.2463240 -0.881681E-07  0.607E-04    1.40      30.6  T
   5    -48.2463240 -0.267017E-08  0.226E-04    1.40      82.1  T
     SCC iter.                  ...        0 min,  0.012 sec
     gradient                   ...        0 min,  0.011 sec
 * total energy  :   -47.6795320 Eh     change       -0.3799115E-04 Eh
   gradient norm :     0.0018947 Eh/α   predicted    -0.2419549E-04 ( -36.31%)
   displ. norm   :     0.3377040 α      lambda       -0.9396688E-04
   maximum displ.:     0.2334090 α      in ANC's #2, #1, #3, ...

........................................................................
.............................. CYCLE  101 ..............................
........................................................................

 iter      E             dE          RMSdq      gap      omega  full diag
   1    -48.2471394 -0.482471E+02  0.998E-02    1.40       0.0  T
   2    -48.2471405 -0.106182E-05  0.591E-02    1.40       1.0  T
   3    -48.2471406 -0.891198E-07  0.496E-03    1.40       3.7  T
   4    -48.2471409 -0.354551E-06  0.224E-03    1.40       8.3  T
   5    -48.2471409 -0.132791E-07  0.100E-03    1.40      18.5  T
   6    -48.2471409 -0.417224E-08  0.308E-04    1.40      60.2  T
   7    -48.2471409 -0.571198E-09  0.114E-04    1.40     162.4  T
     SCC iter.                  ...        0 min,  0.012 sec
     gradient                   ...        0 min,  0.011 sec
 * total energy  :   -47.6796283 Eh     change       -0.9634939E-04 Eh
   gradient norm :     0.0040916 Eh/α   predicted    -0.4944349E-04 ( -48.68%)
   displ. norm   :     0.3444711 α      lambda       -0.9700871E-04
   maximum displ.:     0.2403896 α      in ANC's #2, #1, #3, ...

........................................................................
.............................. CYCLE  102 ..............................
........................................................................

 iter      E             dE          RMSdq      gap      omega  full diag
   1    -48.2451270 -0.482451E+02  0.104E-01    1.39       0.0  T
   2    -48.2451284 -0.141407E-05  0.616E-02    1.39       1.0  T
   3    -48.2451279  0.517680E-06  0.774E-03    1.39       2.4  T
   4    -48.2451290 -0.109207E-05  0.246E-03    1.39       7.6  T
   5    -48.2451290 -0.132583E-07  0.120E-03    1.39      15.4  T
   6    -48.2451290 -0.207366E-08  0.363E-04    1.39      51.1  T
   7    -48.2451290 -0.161037E-08  0.151E-04    1.39     123.1  T
     SCC iter.                  ...        0 min,  0.012 sec
     gradient                   ...        0 min,  0.011 sec
 * total energy  :   -47.6796919 Eh     change       -0.6355427E-04 Eh
   gradient norm :     0.0050994 Eh/α   predicted    -0.5428291E-04 ( -14.59%)
   displ. norm   :     0.1787202 α      lambda       -0.6724476E-04
   maximum displ.:     0.1287317 α      in ANC's #2, #1, #4, ...

........................................................................
.............................. CYCLE  103 ..............................
........................................................................

 iter      E             dE          RMSdq      gap      omega  full diag
   1    -48.2453532 -0.482454E+02  0.496E-02    1.40       0.0  T
   2    -48.2453537 -0.475962E-06  0.292E-02    1.40       1.0  T
   3    -48.2453532  0.421565E-06  0.558E-03    1.40       3.3  T
   4    -48.2453538 -0.599252E-06  0.126E-03    1.40      14.7  T
   5    -48.2453538 -0.378161E-08  0.631E-04    1.40      29.4  T
   6    -48.2453538 -0.448551E-09  0.201E-04    1.40      92.4  T
     SCC iter.                  ...        0 min,  0.020 sec
     gradient                   ...        0 min,  0.012 sec
 * total energy  :   -47.6797418 Eh     change       -0.4986267E-04 Eh
   gradient norm :     0.0034182 Eh/α   predicted    -0.3469719E-04 ( -30.41%)
   displ. norm   :     0.1947944 α      lambda       -0.8040093E-04
   maximum displ.:     0.1435484 α      in ANC's #2, #1, #4, ...

........................................................................
.............................. CYCLE  104 ..............................
........................................................................

 iter      E             dE          RMSdq      gap      omega  full diag
   1    -48.2462171 -0.482462E+02  0.578E-02    1.40       0.0  T
   2    -48.2462179 -0.829436E-06  0.340E-02    1.40       1.0  T
   3    -48.2462169  0.974153E-06  0.813E-03    1.40       2.3  T
   4    -48.2462182 -0.130858E-05  0.140E-03    1.40      13.2  T
   5    -48.2462182 -0.459323E-08  0.715E-04    1.40      26.0  T
   6    -48.2462182 -0.212925E-08  0.292E-04    1.40      63.6  T
     SCC iter.                  ...        0 min,  0.011 sec
     gradient                   ...        0 min,  0.011 sec
 * total energy  :   -47.6797931 Eh     change       -0.5133225E-04 Eh
   gradient norm :     0.0018265 Eh/α   predicted    -0.4172653E-04 ( -18.71%)
   displ. norm   :     0.4799817 α      lambda       -0.4635057E-04
   maximum displ.:     0.3653651 α      in ANC's #2, #1, #4, ...

........................................................................
.............................. CYCLE  105 ..............................
........................................................................

 iter      E             dE          RMSdq      gap      omega  full diag
   1    -48.2423734 -0.482424E+02  0.143E-01    1.39       0.0  T
   2    -48.2423765 -0.313727E-05  0.841E-02    1.39       1.0  T
   3    -48.2423752  0.129635E-05  0.117E-02    1.39       1.6  T
   4    -48.2423775 -0.234739E-05  0.337E-03    1.39       5.5  T
   5    -48.2423776 -0.385607E-07  0.172E-03    1.39      10.8  T
   6    -48.2423776 -0.319657E-08  0.428E-04    1.39      43.4  T
   7    -48.2423776 -0.127491E-08  0.198E-04    1.39      93.6  T
     SCC iter.                  ...        0 min,  0.014 sec
     gradient                   ...        0 min,  0.010 sec
 * total energy  :   -47.6797573 Eh     change        0.3580659E-04 Eh
   gradient norm :     0.0082642 Eh/α   predicted    -0.2554877E-04 (-171.35%)
   displ. norm   :     0.1351151 α      lambda       -0.1195225E-03
   maximum displ.:     0.0872590 α      in ANC's #2, #1, #3, ...

........................................................................
.............................. CYCLE  106 ..............................
........................................................................

 iter      E             dE          RMSdq      gap      omega  full diag
   1    -48.2456537 -0.482457E+02  0.455E-02    1.40       0.0  T
   2    -48.2456546 -0.904553E-06  0.267E-02    1.40       1.0  T
   3    -48.2456544  0.195646E-06  0.484E-03    1.40       3.8  T
   4    -48.2456547 -0.356373E-06  0.139E-03    1.40      13.4  T
   5    -48.2456548 -0.139283E-07  0.722E-04    1.40      25.7  T
   6    -48.2456548 -0.570367E-09  0.282E-04    1.40      65.9  T
     SCC iter.                  ...        0 min,  0.010 sec
     gradient                   ...        0 min,  0.011 sec
 * total energy  :   -47.6798262 Eh     change       -0.6891925E-04 Eh
   gradient norm :     0.0025324 Eh/α   predicted    -0.6085602E-04 ( -11.70%)
   displ. norm   :     0.0296588 α      lambda       -0.1609448E-04
   maximum displ.:     0.0125458 α      in ANC's #3, #5, #7, ...

........................................................................
.............................. CYCLE  107 ..............................
........................................................................

 iter      E             dE          RMSdq      gap      omega  full diag
   1    -48.2463869 -0.482464E+02  0.103E-02    1.41       0.0  T
   2    -48.2463870 -0.778504E-07  0.603E-03    1.41       3.1  T
   3    -48.2463869  0.420150E-07  0.204E-03    1.41       9.1  T
   4    -48.2463870 -0.620655E-07  0.363E-04    1.41      51.2  T
   5    -48.2463870 -0.834355E-09  0.167E-04    1.41     111.5  T
     SCC iter.                  ...        0 min,  0.271 sec
     gradient                   ...        0 min,  0.010 sec
 * total energy  :   -47.6798385 Eh     change       -0.1230985E-04 Eh
   gradient norm :     0.0013232 Eh/α   predicted    -0.8055087E-05 ( -34.56%)
   displ. norm   :     0.0870442 α      lambda       -0.1907128E-04
   maximum displ.:     0.0446567 α      in ANC's #2, #5, #7, ...

........................................................................
.............................. CYCLE  108 ..............................
........................................................................

 iter      E             dE          RMSdq      gap      omega  full diag
   1    -48.2473552 -0.482474E+02  0.276E-02    1.41       0.0  T
   2    -48.2473557 -0.469305E-06  0.163E-02    1.41       1.1  T
   3    -48.2473554  0.301910E-06  0.506E-03    1.41       3.7  T
   4    -48.2473558 -0.425960E-06  0.865E-04    1.41      21.5  T
   5    -48.2473558 -0.532143E-08  0.408E-04    1.41      45.5  T
     SCC iter.                  ...        0 min,  0.048 sec
     gradient                   ...        0 min,  0.010 sec
 * total energy  :   -47.6798540 Eh     change       -0.1552334E-04 Eh
   gradient norm :     0.0020428 Eh/α   predicted    -0.9568327E-05 ( -38.36%)
   displ. norm   :     0.0623815 α      lambda       -0.9354997E-05
   maximum displ.:     0.0504662 α      in ANC's #2, #1, #5, ...

........................................................................
.............................. CYCLE  109 ..............................
........................................................................

 iter      E             dE          RMSdq      gap      omega  full diag
   1    -48.2470596 -0.482471E+02  0.206E-02    1.41       0.0  T
   2    -48.2470596 -0.589446E-07  0.121E-02    1.41       1.5  T
   3    -48.2470596  0.726349E-08  0.110E-03    1.41      16.9  T
   4    -48.2470596 -0.241584E-07  0.413E-04    1.41      45.0  T
   5    -48.2470596 -0.736520E-09  0.226E-04    1.41      82.0  T
     SCC iter.                  ...        0 min,  0.023 sec
     gradient                   ...        0 min,  0.010 sec
 * total energy  :   -47.6798623 Eh     change       -0.8235255E-05 Eh
   gradient norm :     0.0015862 Eh/α   predicted    -0.4695835E-05 ( -42.98%)
   displ. norm   :     0.3805347 α      lambda       -0.3050226E-04
   maximum displ.:     0.3102669 α      in ANC's #2, #1, #5, ...

........................................................................
.............................. CYCLE  110 ..............................
........................................................................

 iter      E             dE          RMSdq      gap      omega  full diag
   1    -48.2447528 -0.482448E+02  0.126E-01    1.41       0.0  T
   2    -48.2447546 -0.186041E-05  0.741E-02    1.41       1.0  T
   3    -48.2447539  0.722987E-06  0.806E-03    1.41       2.3  T
   4    -48.2447554 -0.145704E-05  0.258E-03    1.41       7.2  T
   5    -48.2447554 -0.114685E-07  0.109E-03    1.41      17.1  T
   6    -48.2447554 -0.124134E-08  0.310E-04    1.41      59.9  T
   7    -48.2447554 -0.104963E-08  0.151E-04    1.41     122.7  T
     SCC iter.                  ...        0 min,  0.022 sec
     gradient                   ...        0 min,  0.011 sec
 * total energy  :   -47.6798606 Eh     change        0.1678566E-05 Eh
   gradient norm :     0.0038019 Eh/α   predicted    -0.1623573E-04 (*******%)
   displ. norm   :     0.1354082 α      lambda       -0.3202350E-04
   maximum displ.:     0.1116164 α      in ANC's #2, #1, #5, ...

........................................................................
.............................. CYCLE  111 ..............................
........................................................................

 iter      E             dE          RMSdq      gap      omega  full diag
   1    -48.2460293 -0.482460E+02  0.435E-02    1.41       0.0  T
   2    -48.2460295 -0.250974E-06  0.256E-02    1.41       1.0  T
   3    -48.2460294  0.124709E-06  0.313E-03    1.41       5.9  T
   4    -48.2460296 -0.225273E-06  0.944E-04    1.41      19.7  T
   5    -48.2460296 -0.143848E-08  0.343E-04    1.41      54.2  T
     SCC iter.                  ...        0 min,  0.119 sec
     gradient                   ...        0 min,  0.011 sec
 * total energy  :   -47.6798791 Eh     change       -0.1856060E-04 Eh
   gradient norm :     0.0015993 Eh/α   predicted    -0.1631033E-04 ( -12.12%)
   displ. norm   :     0.0421737 α      lambda       -0.4580866E-05
   maximum displ.:     0.0304916 α      in ANC's #2, #1, #4, ...

........................................................................
.............................. CYCLE  112 ..............................
........................................................................

 iter      E             dE          RMSdq      gap      omega  full diag
   1    -48.2466671 -0.482467E+02  0.110E-02    1.41       0.0  T
   2    -48.2466671 -0.338377E-07  0.643E-03    1.41       2.9  T
   3    -48.2466671 -0.191806E-08  0.613E-04    1.41      30.3  T
   4    -48.2466671 -0.394822E-08  0.259E-04    1.41      71.7  T
     SCC iter.                  ...        0 min,  0.008 sec
     gradient                   ...        0 min,  0.011 sec
 * total energy  :   -47.6798838 Eh     change       -0.4620665E-05 Eh
   gradient norm :     0.0006359 Eh/α   predicted    -0.2293955E-05 ( -50.35%)
   displ. norm   :     0.0356039 α      lambda       -0.3802637E-05
   maximum displ.:     0.0259897 α      in ANC's #4, #8, #7, ...

   *** GEOMETRY OPTIMIZATION CONVERGED AFTER 112 ITERATIONS ***

------------------------------------------------------------------------
 total energy gain   :        -0.2709140 Eh     -170.0011 kcal/mol
 total RMSD          :         2.6273582 a0        1.3903 Å
 total power (kW/mol):        -6.3507545 (step)  -82.8133 (real)
------------------------------------------------------------------------

 ANCopt (total)                0 d,  0 h,  0 min,  8.589 sec
 optimizer setup                ...        0 min,  0.000 sec (  0.004%)
 model hessian                  ...        0 min,  0.055 sec (  0.635%)
 ANC generation                 ...        0 min,  0.007 sec (  0.080%)
 coordinate transformation      ...        0 min,  0.003 sec (  0.035%)
 single point calculation       ...        0 min,  8.388 sec ( 97.658%)
 optimization log               ...        0 min,  0.022 sec (  0.256%)
 hessian update                 ...        0 min,  0.042 sec (  0.492%)
 rational function              ...        0 min,  0.027 sec (  0.317%)

================
 final structure:
================
29
 xtb: 6.7.1 (edcfbbe)
O            3.78473149593765        4.11852940185810       -3.28920788982507
O            6.70206788024569        3.62835192220163       -1.56236658931805
O            2.28560880056556        5.82246243358848       -2.95478524188299
C            5.64844558312622        3.11685238785725       -1.30404010724503
C            3.54489743593816        5.33009916930603       -2.61238910363139
C            5.14426288877186        1.74355199644233       -1.42164855256784
C            4.59054756303543        6.38267666607011       -3.00396563973328
H            4.37857086838134        1.76290926114811       -2.19641041939969
H            4.66253947384470        1.45189475942467       -0.49167220502413
H            5.93319097772498        1.03686399791415       -1.68656858877905
H            4.47999975077565        7.26155077068009       -2.37737535865766
H            5.58169492708737        5.95902663096436       -2.86366036376264
H            4.10935492057227        8.25060022981076        3.73830369320759
H            1.60479459356484        5.19680249112053       -2.66208762888347
O            3.59162309403905        8.58065739509515        2.98943546327406
N            3.59924160355160        4.95220486365236       -1.21830229123140
C            3.63189524010219        5.89506361475494       -0.19888156517739
C            4.31550735206896        5.59739892417343        0.98009945060466
C            2.93504805084839        7.10347715824002       -0.27076605963157
C            3.62151079024597        7.67607296051642        1.96351651088892
C            4.31010876182408        6.47281432640697        2.04804660582585
C            2.93379342035842        7.98055043158351        0.79433020924942
H            4.86670880808702        4.67131105738005        1.05093463684616
H            2.38657607707932        7.35318495262462       -1.16504017047178
H            4.85310177645342        6.22044945585837        2.94761447854627
H            2.39707008368953        8.91449461884397        0.73633540878620
H            4.44962903572401        6.66695619491969       -4.04214061008473
H            4.32538934598461        4.19268607902257       -1.10076327235061
H            3.71970400249669        4.27014234349909       -4.24353449682255

 Bond Distances (Angstroems)
 ---------------------------
O1-C5=1.4084         O1-H29=0.9685        O2-C4=1.1994         O3-C5=1.3948         O3-H14=0.9699        C4-O2=1.1994         
C4-C6=1.4676         C5-O1=1.4084         C5-O3=1.3948         C5-C7=1.5345         C5-N16=1.4454        C6-C4=1.4676         
C6-H8=1.0895         C6-H9=1.0872         C6-H10=1.0918        C7-C5=1.5345         C7-H11=1.0850        C7-H12=1.0870        
C7-H27=1.0856        H8-C6=1.0895         H9-C6=1.0872         H10-C6=1.0918        H11-C7=1.0850        H12-C7=1.0870        
H13-O15=0.9684       H14-O3=0.9699        O15-H13=0.9684       O15-C20=1.3681       N16-C5=1.4454        N16-C17=1.3890       
N16-H28=1.0573       C17-N16=1.3890       C17-C18=1.3950       C17-C19=1.3968       C18-C17=1.3950       C18-C21=1.3809       
C18-H23=1.0800       C19-C17=1.3968       C19-C22=1.3797       C19-H24=1.0784       C20-O15=1.3681       C20-C21=1.3889       
C20-C22=1.3902       C21-C18=1.3809       C21-C20=1.3889       C21-H25=1.0806       C22-C19=1.3797       C22-C20=1.3902       
C22-H26=1.0787       H23-C18=1.0800       H24-C19=1.0784       H25-C21=1.0806       H26-C22=1.0787       H27-C7=1.0856        
H28-N16=1.0573       H29-O1=0.9685        
 C  H  Rav=1.0844 sigma=0.0044  Rmin=1.0784  Rmax=1.0918    10
 C  C  Rav=1.4167 sigma=0.0518  Rmin=1.3797  Rmax=1.5345     8
 N  H  Rav=1.0573 sigma=0.0000  Rmin=1.0573  Rmax=1.0573     1
 N  C  Rav=1.4172 sigma=0.0282  Rmin=1.3890  Rmax=1.4454     2
 O  H  Rav=0.9689 sigma=0.0007  Rmin=0.9684  Rmax=0.9699     3
 O  C  Rav=1.3427 sigma=0.0840  Rmin=1.1994  Rmax=1.4084     4

 selected bond angles (degree)
 --------------------
H29-O1-C5=109.11               H14-O3-C5=109.39               C6-C4-O2=133.12                O3-C5-O1=109.84                
C7-C5-O1=110.57                C7-C5-O3=108.09                N16-C5-O1=103.43               N16-C5-O3=111.28               
N16-C5-C7=113.57               H8-C6-C4=106.37                H9-C6-C4=109.55                H9-C6-H8=107.56                
H10-C6-C4=112.14               H10-C6-H8=110.29               H10-C6-H9=110.74               H11-C7-C5=109.81               
H12-C7-C5=108.73               H12-C7-H11=109.52              H27-C7-C5=109.59               H27-C7-H11=109.08              
H27-C7-H12=110.11              

 selected dihedral angles (degree)
 ---------------------------------
O3-C5-O1-H29= 58.16           C7-C5-O1-H29=298.95           N16-C5-O1-H29=177.03          O1-C5-O3-H14= 62.98           
C7-C5-O3-H14=183.70           N16-C5-O3-H14=309.06          H8-C6-C4-O2=247.85            H9-C6-C4-O2=131.88            
H10-C6-C4-O2=  8.50           H11-C7-C5-O1=187.83           H11-C7-C5-O3= 67.56           H11-C7-C5-N16=303.57          
H12-C7-C5-O1=307.63           H12-C7-C5-O3=187.37           H12-C7-C5-N16= 63.37          H27-C7-C5-O1= 68.03           
H27-C7-C5-O3=307.76           H27-C7-C5-N16=183.77          
           -------------------------------------------------
          |                Final Singlepoint                |
           -------------------------------------------------

          ...................................................
          :                      SETUP                      :
          :.................................................:
          :  # basis functions                  74          :
          :  # atomic orbitals                  74          :
          :  # shells                           44          :
          :  # electrons                        83          :
          :  max. iterations                   250          :
          :  Hamiltonian                  GFN2-xTB          :
          :  restarted?                      false          :
          :  GBSA solvation                   true          :
          :  PC potential                    false          :
          :  electronic temp.          300.0000000     K    :
          :  accuracy                    1.0000000          :
          :  -> integral cutoff          0.2500000E+02      :
          :  -> integral neglect         0.1000000E-07      :
          :  -> SCF convergence          0.1000000E-05 Eh   :
          :  -> wf. convergence          0.1000000E-03 e    :
          :  Broyden damping             0.4000000          :
          :  net charge                          0          :
          :  unpaired electrons                  0          :
          ...................................................

 iter      E             dE          RMSdq      gap      omega  full diag
   1    -48.2466671 -0.482467E+02  0.142E-04    1.41       0.0  T
   2    -48.2466671 -0.487290E-10  0.873E-05    1.41     212.7  T
   3    -48.2466671 -0.255795E-12  0.499E-05    1.41     372.3  T

   *** convergence criteria satisfied after 3 iterations ***

         #    Occupation            Energy/Eh            Energy/eV
      -------------------------------------------------------------
         1        2.0000           -0.7338143             -19.9681
       ...           ...                  ...                  ...
        36        2.0000           -0.4418692             -12.0239
        37        2.0000           -0.4363212             -11.8729
        38        2.0000           -0.4141001             -11.2682
        39        2.0000           -0.4093773             -11.1397
        40        2.0000           -0.3989224             -10.8552
        41        2.0000           -0.3499116              -9.5216
        42        1.0000           -0.3084354              -8.3930 (HOMO)
        43                         -0.2565637              -6.9815 (LUMO)
        44                         -0.2172513              -5.9117
        45                         -0.1977680              -5.3815
        46                         -0.0804393              -2.1889
        47                          0.0286730               0.7802
       ...                                ...                  ...
        74                          0.6703438              18.2410
      -------------------------------------------------------------
                  HL-Gap            0.0518716 Eh            1.4115 eV
             Fermi-level           -0.3058365 Eh           -8.3222 eV

 SCC (total)                   0 d,  0 h,  0 min,  0.025 sec
 SCC setup                      ...        0 min,  0.001 sec (  3.966%)
 Dispersion                     ...        0 min,  0.000 sec (  1.328%)
 classical contributions        ...        0 min,  0.000 sec (  0.749%)
 integral evaluation            ...        0 min,  0.004 sec ( 15.947%)
 iterations                     ...        0 min,  0.008 sec ( 32.212%)
 molecular gradient             ...        0 min,  0.011 sec ( 44.470%)
 printout                       ...        0 min,  0.000 sec (  1.258%)

         :::::::::::::::::::::::::::::::::::::::::::::::::::::
         ::                     SUMMARY                     ::
         :::::::::::::::::::::::::::::::::::::::::::::::::::::
         :: total energy             -47.679883768493 Eh    ::
         :: total w/o Gsasa/hb       -47.664920761926 Eh    ::
         :: gradient norm              0.000638676651 Eh/a0 ::
         :: HOMO-LUMO gap              1.411498716322 eV    ::
         ::.................................................::
         :: SCC energy               -48.246467173910 Eh    ::
         :: -> isotropic ES            0.127923945230 Eh    ::
         :: -> anisotropic ES         -0.004590201136 Eh    ::
         :: -> anisotropic XC          0.010961190830 Eh    ::
         :: -> dispersion             -0.025952105114 Eh    ::
         :: -> Gsolv                  -0.031514607743 Eh    ::
         ::    -> Gelec               -0.016551601176 Eh    ::
         ::    -> Gsasa                0.002398026424 Eh    ::
         ::    -> Ghb                 -0.018441792689 Eh    ::
         ::    -> Gshift               0.001080759698 Eh    ::
         :: repulsion energy           0.566583405417 Eh    ::
         :: add. restraining           0.000000000000 Eh    ::
         :: total charge               0.000000000000 e     ::
         :::::::::::::::::::::::::::::::::::::::::::::::::::::

           -------------------------------------------------
          |                Property Printout                |
           -------------------------------------------------

    * Orbital Energies and Occupations

         #    Occupation            Energy/Eh            Energy/eV
      -------------------------------------------------------------
         1        2.0000           -0.7338143             -19.9681
       ...           ...                  ...                  ...
        30        2.0000           -0.4733599             -12.8808
        31        2.0000           -0.4719082             -12.8413
        32        2.0000           -0.4696767             -12.7806
        33        2.0000           -0.4629940             -12.5987
        34        2.0000           -0.4574715             -12.4484
        35        2.0000           -0.4553857             -12.3917
        36        2.0000           -0.4418692             -12.0239
        37        2.0000           -0.4363212             -11.8729
        38        2.0000           -0.4141001             -11.2682
        39        2.0000           -0.4093773             -11.1397
        40        2.0000           -0.3989224             -10.8552
        41        2.0000           -0.3499116              -9.5216
        42        1.0000           -0.3084354              -8.3930 (HOMO)
        43                         -0.2565637              -6.9815 (LUMO)
        44                         -0.2172513              -5.9117
        45                         -0.1977680              -5.3815
        46                         -0.0804393              -2.1889
        47                          0.0286730               0.7802
        48                          0.0544672               1.4821
        49                          0.0756167               2.0576
        50                          0.0790279               2.1505
        51                          0.1139434               3.1006
        52                          0.1317533               3.5852
        53                          0.1458752               3.9695
       ...                                ...                  ...
        74                          0.6703438              18.2410
      -------------------------------------------------------------
                  HL-Gap            0.0518716 Eh            1.4115 eV
             Fermi-level           -0.3058365 Eh           -8.3222 eV

     #   Z          covCN         q      C6AA      α(0)
     1   8 O        1.658    -0.528    23.504     6.545
     2   8 O        0.856    -0.336    20.442     6.062
     3   8 O        1.657    -0.517    23.256     6.510
     4   6 C        1.848     0.158    27.335     8.446
     5   6 C        3.589     0.337    16.145     5.824
     6   6 C        3.752    -0.149    23.429     6.903
     7   6 C        3.752    -0.140    23.248     6.876
     8   1 H        0.925     0.133     1.514     1.924
     9   1 H        0.925     0.119     1.621     1.991
    10   1 H        0.924     0.095     1.830     2.115
    11   1 H        0.925     0.056     2.249     2.345
    12   1 H        0.925     0.052     2.296     2.369
    13   1 H        0.805     0.367     0.551     1.166
    14   1 H        0.804     0.376     0.532     1.146
    15   8 O        1.659    -0.470    22.262     6.369
    16   7 N        2.687    -0.267    26.905     7.704
    17   6 C        2.902     0.066    26.529     8.445
    18   6 C        2.926    -0.064    29.593     8.921
    19   6 C        2.922    -0.063    29.560     8.916
    20   6 C        2.845     0.129    25.160     8.221
    21   6 C        2.917    -0.076    29.896     8.966
    22   6 C        2.919    -0.064    29.586     8.920
    23   1 H        0.926     0.034     2.524     2.485
    24   1 H        0.926     0.048     2.348     2.396
    25   1 H        0.926     0.040     2.448     2.447
    26   1 H        0.926     0.043     2.404     2.425
    27   1 H        0.925     0.062     2.170     2.304
    28   1 H        0.870     0.186     1.176     1.698
    29   1 H        0.804     0.371     0.541     1.155

 Mol. C6AA /au·bohr⁶  :       8568.569039
 Mol. C8AA /au·bohr⁸  :     196937.757869
 Mol. α(0) /au        :        141.592569


Wiberg/Mayer (AO) data.
largest (>0.10) Wiberg bond orders for each atom

 ---------------------------------------------------------------------------
     #   Z sym  total        # sym  WBO       # sym  WBO       # sym  WBO
 ---------------------------------------------------------------------------
     1   8 O    1.922 --     5 C    0.967    29 H    0.844
     2   8 O    2.215 --     4 C    2.040
     3   8 O    1.943 --     5 C    0.984    14 H    0.839
     4   6 C    3.421 --     2 O    2.040     6 C    1.087    28 H    0.134
     5   6 C    3.926 --     3 O    0.984    16 N    0.976     7 C    0.972
                             1 O    0.967
     6   6 C    3.975 --     4 C    1.087    10 H    0.948     9 H    0.943
                             8 H    0.923
     7   6 C    3.992 --    12 H    0.985    27 H    0.982    11 H    0.980
                             5 C    0.972
     8   1 H    0.982 --     6 C    0.923
     9   1 H    0.986 --     6 C    0.943
    10   1 H    0.988 --     6 C    0.948
    11   1 H    0.997 --     7 C    0.980
    12   1 H    0.997 --     7 C    0.985
    13   1 H    0.866 --    15 O    0.846
    14   1 H    0.859 --     3 O    0.839
    15   8 O    2.048 --    20 C    1.055    13 H    0.846
    16   7 N    3.242 --    17 C    1.120     5 C    0.976    28 H    0.797
    17   6 C    3.972 --    18 C    1.353    19 C    1.346    16 N    1.120
    18   6 C    3.987 --    21 C    1.458    17 C    1.353    23 H    0.966
                            22 C    0.104
    19   6 C    3.987 --    22 C    1.464    17 C    1.346    24 H    0.965
                            21 C    0.102
    20   6 C    3.933 --    21 C    1.370    22 C    1.364    15 O    1.055
    21   6 C    3.987 --    18 C    1.458    20 C    1.370    25 H    0.966
                            19 C    0.102
    22   6 C    3.988 --    19 C    1.464    20 C    1.364    26 H    0.968
                            18 C    0.104
    23   1 H    0.999 --    18 C    0.966
    24   1 H    0.998 --    19 C    0.965
    25   1 H    0.998 --    21 C    0.966
    26   1 H    0.997 --    22 C    0.968
    27   1 H    0.996 --     7 C    0.982
    28   1 H    0.965 --    16 N    0.797     4 C    0.134
    29   1 H    0.862 --     1 O    0.844
 ---------------------------------------------------------------------------

Topologies differ in total number of bonds
Writing topology from bond orders to xtbtopo.mol

molecular dipole:
                 x           y           z       tot (Debye)
 q only:       -0.515      -1.733      -0.156
   full:       -0.232      -1.876      -0.211       4.835
molecular quadrupole (traceless):
                xx          xy          yy          xz          yz          zz
 q only:       -3.023     -20.663     -28.256       6.346       2.364      31.279
  q+dip:        1.364     -19.721     -35.429       7.210       1.475      34.065
   full:        1.661     -18.729     -36.060       6.610       1.317      34.399

           -------------------------------------------------
          |                Geometry Summary                 |
           -------------------------------------------------

      molecular mass/u    :      212.2228524
   center of mass at/Å    :        4.0475572       5.5872355      -0.6829767
  moments of inertia/u·Å² :        0.5647845E+03   0.1419987E+04   0.1784248E+04
rotational constants/cm⁻¹ :        0.2984790E-01   0.1187168E-01   0.9448030E-02

 * 25 selected distances

     #   Z          #   Z                                           value/Å
     1   8 O        5   6 C                                       1.4083699
     3   8 O        5   6 C                                       1.3947992
     5   6 C        7   6 C                                       1.5344824 (max)
     6   6 C        8   1 H                                       1.0894564
     6   6 C        9   1 H                                       1.0871879
     6   6 C       10   1 H                                       1.0917867
     7   6 C       11   1 H                                       1.0850143
     7   6 C       12   1 H                                       1.0869859
     3   8 O       14   1 H                                       0.9698610
    13   1 H       15   8 O                                       0.9683944 (min)
     5   6 C       16   7 N                                       1.4454189
    16   7 N       17   6 C                                       1.3889809
    17   6 C       18   6 C                                       1.3949647
    17   6 C       19   6 C                                       1.3967917
    15   8 O       20   6 C                                       1.3680922
    18   6 C       21   6 C                                       1.3809029
    20   6 C       21   6 C                                       1.3889364
    19   6 C       22   6 C                                       1.3797426
    20   6 C       22   6 C                                       1.3902009
    18   6 C       23   1 H                                       1.0800369
    19   6 C       24   1 H                                       1.0783793
    21   6 C       25   1 H                                       1.0806258
    22   6 C       26   1 H                                       1.0787434
     7   6 C       27   1 H                                       1.0855784
     1   8 O       29   1 H                                       0.9684805

 * 5 distinct bonds (by element types)

   Z      Z             #   av. dist./Å        max./Å        min./Å
   1 H    6 C          10     1.0843795     1.0917867     1.0783793
   6 C    6 C           7     1.4094316     1.5344824     1.3797426
   6 C    7 N           2     1.4171999     1.4454189     1.3889809
   1 H    8 O           3     0.9689120     0.9698610     0.9683944
   6 C    8 O           3     1.3904204     1.4083699     1.3680922


optimized geometry written to: xtbopt.xyz


           -------------------------------------------------
          | TOTAL ENERGY              -47.679883768493 Eh   |
          | GRADIENT NORM               0.000638676651 Eh/α |
          | HOMO-LUMO GAP               1.411498716322 eV   |
           -------------------------------------------------

------------------------------------------------------------------------
 * finished run on 2026/06/09 at 00:47:53.608     
------------------------------------------------------------------------
 total:
 * wall-time:     0 d,  0 h,  0 min,  9.022 sec
 *  cpu-time:     0 d,  0 h,  2 min, 16.813 sec
 * ratio c/w:    15.165 speedup
 SCF:
 * wall-time:     0 d,  0 h,  0 min,  0.355 sec
 *  cpu-time:     0 d,  0 h,  0 min,  5.212 sec
 * ratio c/w:    14.668 speedup
 ANC optimizer:
 * wall-time:     0 d,  0 h,  0 min,  8.614 sec
 *  cpu-time:     0 d,  0 h,  2 min, 10.895 sec
 * ratio c/w:    15.195 speedup

