29
 energy: -47.679883768493 gnorm: 0.000638676651 xtb: 6.7.1 (edcfbbe)
O            3.78473149593765        4.11852940185810       -3.28920788982507
O            6.70206788024569        3.62835192220163       -1.56236658931805
O            2.28560880056556        5.82246243358848       -2.95478524188299
C            5.64844558312622        3.11685238785725       -1.30404010724503
C            3.54489743593816        5.33009916930603       -2.61238910363139
C            5.14426288877186        1.74355199644233       -1.42164855256784
C            4.59054756303543        6.38267666607011       -3.00396563973328
H            4.37857086838134        1.76290926114811       -2.19641041939969
H            4.66253947384470        1.45189475942467       -0.49167220502413
H            5.93319097772498        1.03686399791415       -1.68656858877905
H            4.47999975077565        7.26155077068009       -2.37737535865766
H            5.58169492708737        5.95902663096436       -2.86366036376264
H            4.10935492057227        8.25060022981076        3.73830369320759
H            1.60479459356484        5.19680249112053       -2.66208762888347
O            3.59162309403905        8.58065739509515        2.98943546327406
N            3.59924160355160        4.95220486365236       -1.21830229123140
C            3.63189524010219        5.89506361475494       -0.19888156517739
C            4.31550735206896        5.59739892417343        0.98009945060466
C            2.93504805084839        7.10347715824002       -0.27076605963157
C            3.62151079024597        7.67607296051642        1.96351651088892
C            4.31010876182408        6.47281432640697        2.04804660582585
C            2.93379342035842        7.98055043158351        0.79433020924942
H            4.86670880808702        4.67131105738005        1.05093463684616
H            2.38657607707932        7.35318495262462       -1.16504017047178
H            4.85310177645342        6.22044945585837        2.94761447854627
H            2.39707008368953        8.91449461884397        0.73633540878620
H            4.44962903572401        6.66695619491969       -4.04214061008473
H            4.32538934598461        4.19268607902257       -1.10076327235061
H            3.71970400249669        4.27014234349909       -4.24353449682255
