27
energy: -23.399468764848 gnorm: 0.000303058454 xtb: 6.7.1 (edcfbbe)
O     -2.2021960000    0.8031300000    0.0121850000
N      3.0592240000   -1.0931540000    0.1180390000
C      1.7250320000   -0.5862040000    0.0912930000
C      0.6499890000   -1.4863750000    0.1829830000
C      1.4500190000    0.7915660000   -0.0262990000
C     -0.9343770000    0.3452020000    0.0391750000
C     -0.6692650000   -1.0258200000    0.1571100000
C      0.1284500000    1.2490880000   -0.0519640000
H      0.8344210000   -2.5496130000    0.2739220000
H      2.2469240000    1.5187770000   -0.0996890000
H     -1.4836790000   -1.7356360000    0.2285220000
H     -0.0697320000    2.3098880000   -0.1433610000
H      9.0226940000    0.7759570000   -0.8579900000
H      5.5784810000   -2.8566590000   -0.6044510000
H     -2.9645120000    0.2096400000    0.0718190000
O      6.6210510000   -0.2495920000    0.0556550000
O      8.1244770000   -1.8832700000    0.3970470000
O      5.5566540000   -1.9539290000   -1.0118640000
C      7.8936670000   -0.6975400000    0.2037780000
C      5.5147030000   -1.0742530000    0.0754710000
C      9.0252410000    0.2769130000    0.1333000000
C      4.2324260000   -0.2423510000    0.0278730000
H      9.9989330000   -0.2400520000    0.2732350000
H      8.9064010000    1.0416970000    0.9286810000
H      4.2355950000    0.4663940000    0.8839530000
H      4.2076140000    0.3321740000   -0.9239990000
H      3.1895230000   -2.1131890000    0.2060670000
