28
energy: -43.689817851745 gnorm: 0.000784956086 xtb: 6.7.1 (edcfbbe)
O     -1.2352984201    0.6061241204   -0.0914413982
N      3.9449863974   -1.6148440642    0.5790240128
C      2.5591398899   -1.1591340286    0.7098556815
C      1.6268526725   -1.8023002956   -0.3205734973
C      2.3848404657    0.3624734586    0.8291534445
C      0.0940450435    0.1919605036   -0.1957914584
C      0.1800306350   -1.3335186598   -0.1756255017
C      0.9235137949    0.7984444165    0.9355865614
H      1.6743337892   -2.9057303968   -0.2435529221
H      2.9633265494    0.7631641663    1.6807326439
H     -0.4273947821   -1.7712789731   -0.9920852500
H      0.8763311796    1.9041122052    0.9033611874
H      7.3183188155    0.5267977385   -1.9691562971
H      3.9655464325   -2.3208646293   -1.8661280464
H     -1.4068475200    1.1115529205   -0.9242797854
O      4.9580064404    0.2821773869   -0.3804147305
H      6.7974480277   -1.7193724351   -1.3154150522
O      4.2160348280   -1.3616361856   -1.7691139455
C      5.8861070357    1.2026568469   -0.5425968236
C      4.8132305887   -1.1379991958   -0.5167607592
C      7.2983978504    0.9766488367   -0.9596803880
H      4.4057230021   -1.4427145524    1.5040288959
H      7.8149976859    0.3318714264   -0.2206917480
H      7.8793420651    1.9210695878   -1.0033664292
C      6.1343628785   -1.9318093474   -0.4524200048
H      6.6861143630   -1.7447384043    0.4975495949
H      5.9389575341   -3.0276319758   -0.5075542027
O      5.5381534009    2.3451833372   -0.3069920932
