14
energy: -23.983019683491 gnorm: 0.000838318560 xtb: 6.7.1 (edcfbbe)
O     -0.0466276313    0.2450822337   -0.7159120305
O      1.6027202880   -1.3056563205   -0.3881922363
O     -1.8864434097   -1.1097264770   -0.6970535866
C      1.0273294269   -0.1298009043    0.0987484842
C     -1.2060868742   -0.1000341638   -0.0129215211
C      2.0648642177    0.9810250585    0.1682984613
C     -2.1072138506    1.1068537096    0.2065602011
H      2.8962877473    0.6829220942    0.8414002768
H      1.6080134851    1.9064676804    0.5775734414
H      2.4823497833    1.2017624527   -0.8374181438
H     -1.5671864475    1.8827905091    0.7883311645
H     -3.0051592973    0.8086060832    0.7880877889
H     -2.4355737768    1.5456787818   -0.7596933306
H     -1.8088546610   -1.9074757376   -0.1146589692
