 Entering Gaussian System
 *********************************************
 Gaussian 98:
 frequency output generated by the xtb code
 *********************************************
                         Standard orientation:
 --------------------------------------------------------------------
  Center     Atomic     Atomic              Coordinates (Angstroms)
  Number     Number      Type              X           Y           Z
 --------------------------------------------------------------------
    1          8             0       -0.000021    0.562426   -0.000028
    2          8             0        1.348086   -1.266469   -0.001734
    3          8             0       -1.348082   -1.266504    0.001449
    4          6             0        1.217908   -0.073279   -0.000856
    5          6             0       -1.217934   -0.073309    0.000830
    6          6             0        2.305875    0.943510    0.001102
    7          6             0       -2.305927    0.943452   -0.000736
    8          1             0        3.270029    0.446753   -0.006729
    9          1             0        2.207516    1.569549    0.884516
   10          1             0        2.198944    1.582827   -0.871565
   11          1             0       -2.200487    1.580627    0.873692
   12          1             0       -3.270078    0.446654    0.004474
   13          1             0       -2.206094    1.571665   -0.882427
 --------------------------------------------------------------------
     1 basis functions        1 primitive gaussians
     1 alpha electrons        1 beta electrons

 Harmonic frequencies (cm**-1), IR intensities (km*mol⁻¹),
 Raman scattering activities (A**4/amu), Raman depolarization ratios,
 reduced masses (AMU), force constants (mDyne/A) and normal coordinates:
                      1                      2                      3
                        a                      a                      a 
 Frequencies --    27.2543                75.1681                78.3172
 Red. masses --    13.4066                 1.9992                 1.3655
 Frc consts  --     0.0000                 0.0000                 0.0000
 IR Inten    --     0.0003                 2.4720                 0.0027
 Raman Activ --     0.0000                 0.0000                 0.0000
 Depolar     --     0.0000                 0.0000                 0.0000
 Atom AN      X      Y      Z        X      Y      Z        X      Y      Z
   1   8    -0.00   0.00  -0.00    -0.00   0.00  -0.17    -0.00  -0.00   0.00
   2   8    -0.01   0.00  -0.58    -0.00   0.00   0.13     0.00   0.00   0.11
   3   8     0.01   0.00   0.58     0.00  -0.00   0.13    -0.00   0.00  -0.11
   4   6    -0.00   0.00  -0.08    -0.00   0.00  -0.03     0.00   0.00   0.01
   5   6     0.00   0.00   0.08    -0.00  -0.00  -0.03    -0.00   0.00  -0.01
   6   6     0.00  -0.00   0.32     0.00  -0.00  -0.04     0.00   0.00   0.00
   7   6    -0.00  -0.00  -0.32    -0.00  -0.00  -0.04    -0.00   0.00   0.00
   8   1     0.00  -0.00   0.08    -0.00   0.00  -0.38    -0.00   0.00  -0.36
   9   1    -0.02  -0.07   0.14     0.23  -0.28   0.21     0.22  -0.26   0.22
  10   1     0.02   0.07   0.14    -0.23   0.27   0.22    -0.22   0.26   0.22
  11   1    -0.02   0.07  -0.14    -0.21  -0.26   0.21     0.23   0.28  -0.23
  12   1    -0.00  -0.00  -0.07    -0.00  -0.00  -0.36     0.00   0.00   0.38
  13   1     0.02  -0.07  -0.14     0.22   0.26   0.20    -0.24  -0.28  -0.23
                      4                      5                      6
                        a                      a                      a 
 Frequencies --   119.5994               169.9358               334.1196
 Red. masses --    12.8994                12.6873                11.1608
 Frc consts  --     0.0000                 0.0000                 0.0000
 IR Inten    --     1.9783                 2.6754                 2.2453
 Raman Activ --     0.0000                 0.0000                 0.0000
 Depolar     --     0.0000                 0.0000                 0.0000
 Atom AN      X      Y      Z        X      Y      Z        X      Y      Z
   1   8    -0.00  -0.00  -0.77     0.00  -0.36   0.00    -0.00  -0.05  -0.00
   2   8     0.00  -0.00   0.12     0.47  -0.06  -0.01     0.42   0.12  -0.00
   3   8     0.00   0.00   0.12    -0.47  -0.06   0.01    -0.42   0.12   0.00
   4   6     0.00  -0.00  -0.11     0.10  -0.08  -0.00     0.15   0.09   0.00
   5   6     0.00   0.00  -0.11    -0.10  -0.08   0.00    -0.15   0.09  -0.00
   6   6    -0.00  -0.00   0.32    -0.22   0.27   0.00     0.39  -0.14   0.00
   7   6    -0.00   0.00   0.32     0.22   0.27  -0.00    -0.39  -0.14  -0.00
   8   1     0.00   0.00   0.20    -0.01   0.18   0.00     0.05  -0.16   0.00
   9   1    -0.10  -0.01   0.09    -0.13   0.07   0.00     0.19  -0.03   0.00
  10   1     0.10   0.01   0.09    -0.13   0.07   0.00     0.20  -0.03  -0.00
  11   1     0.10  -0.01   0.09     0.13   0.07  -0.00    -0.20  -0.03   0.00
  12   1     0.00   0.00   0.20     0.01   0.18  -0.00    -0.05  -0.16  -0.00
  13   1    -0.10   0.01   0.09     0.13   0.07  -0.00    -0.20  -0.03  -0.00
                      7                      8                      9
                        a                      a                      a 
 Frequencies --   375.9602               506.1616               539.5167
 Red. masses --    11.0037                12.6924                 8.8778
 Frc consts  --     0.0000                 0.0000                 0.0000
 IR Inten    --     0.0458                67.5114                 0.0000
 Raman Activ --     0.0000                 0.0000                 0.0000
 Depolar     --     0.0000                 0.0000                 0.0000
 Atom AN      X      Y      Z        X      Y      Z        X      Y      Z
   1   8     0.18   0.00   0.00    -0.29   0.00   0.00     0.00   0.00   0.00
   2   8     0.19  -0.36  -0.00     0.48   0.04   0.00     0.00   0.00   0.20
   3   8     0.19   0.36  -0.00     0.48  -0.04   0.00    -0.00   0.00  -0.20
   4   6     0.09  -0.33  -0.00    -0.26  -0.03  -0.00    -0.00   0.00  -0.55
   5   6     0.09   0.33   0.00    -0.26   0.03   0.00     0.00   0.00   0.55
   6   6    -0.30   0.04  -0.00    -0.13  -0.27  -0.00    -0.00  -0.00   0.00
   7   6    -0.30  -0.04  -0.00    -0.13   0.27  -0.00     0.00  -0.00  -0.00
   8   1    -0.00   0.18  -0.00    -0.10  -0.21  -0.00     0.00   0.00   0.14
   9   1    -0.20   0.00  -0.00     0.05  -0.07   0.00    -0.19  -0.15   0.09
  10   1    -0.20   0.00   0.00     0.05  -0.07  -0.00     0.19   0.15   0.09
  11   1    -0.20  -0.00   0.00     0.05   0.07  -0.00    -0.19   0.15  -0.09
  12   1    -0.00  -0.18  -0.00    -0.10   0.21  -0.00    -0.00   0.00  -0.14
  13   1    -0.20  -0.00  -0.00     0.05   0.07   0.00     0.19  -0.15  -0.09
                     10                     11                     12
                        a                      a                      a 
 Frequencies --   591.8674               678.7397               852.0324
 Red. masses --     9.6056                11.3463                12.3745
 Frc consts  --     0.0000                 0.0000                 0.0000
 IR Inten    --    23.9555                 0.0015                20.2225
 Raman Activ --     0.0000                 0.0000                 0.0000
 Depolar     --     0.0000                 0.0000                 0.0000
 Atom AN      X      Y      Z        X      Y      Z        X      Y      Z
   1   8    -0.00  -0.00  -0.37    -0.00  -0.25   0.00     0.00  -0.74   0.00
   2   8     0.00  -0.00  -0.20    -0.27  -0.15   0.00    -0.15   0.19   0.00
   3   8     0.00   0.00  -0.20     0.27  -0.15  -0.00     0.15   0.19  -0.00
   4   6    -0.00  -0.00   0.49     0.31  -0.06  -0.00    -0.15   0.14  -0.00
   5   6    -0.00   0.00   0.49    -0.31  -0.06   0.00     0.15   0.14   0.00
   6   6     0.00   0.00   0.04     0.35   0.28   0.00    -0.09   0.11   0.00
   7   6     0.00   0.00   0.04    -0.35   0.28  -0.00     0.09   0.11  -0.00
   8   1    -0.00  -0.00  -0.12     0.16   0.20   0.00    -0.14  -0.20  -0.00
   9   1     0.19   0.16  -0.08     0.03   0.07  -0.00     0.14   0.03   0.01
  10   1    -0.19  -0.16  -0.09     0.03   0.07   0.00     0.15   0.03  -0.01
  11   1    -0.19   0.16  -0.09    -0.03   0.07  -0.00    -0.15   0.03   0.01
  12   1    -0.00   0.00  -0.12    -0.16   0.20  -0.00     0.14  -0.20   0.00
  13   1     0.19  -0.16  -0.08    -0.03   0.07   0.00    -0.15   0.03  -0.01
                     13                     14                     15
                        a                      a                      a 
 Frequencies --   933.7765               960.3410               994.8535
 Red. masses --    13.9774                 9.5959                 5.8172
 Frc consts  --     0.0000                 0.0000                 0.0000
 IR Inten    --   809.4223               114.4047                 0.0039
 Raman Activ --     0.0000                 0.0000                 0.0000
 Depolar     --     0.0000                 0.0000                 0.0000
 Atom AN      X      Y      Z        X      Y      Z        X      Y      Z
   1   8    -0.83  -0.00   0.00     0.09  -0.00  -0.00    -0.00  -0.00  -0.00
   2   8     0.02  -0.08  -0.00    -0.03   0.30  -0.00    -0.00   0.00  -0.07
   3   8     0.02   0.08  -0.00    -0.03  -0.30  -0.00     0.00   0.00   0.07
   4   6     0.25  -0.10  -0.00     0.26   0.16   0.00     0.00   0.00   0.35
   5   6     0.25   0.10  -0.00     0.26  -0.16   0.00    -0.00   0.00  -0.35
   6   6     0.19  -0.02  -0.00    -0.15  -0.38  -0.00     0.00  -0.00  -0.30
   7   6     0.19   0.02  -0.00    -0.15   0.38  -0.00    -0.00  -0.00   0.30
   8   1     0.12   0.14   0.00     0.05   0.08   0.00     0.00   0.00   0.15
   9   1    -0.04   0.01  -0.01    -0.24  -0.11  -0.02    -0.25  -0.25   0.08
  10   1    -0.04   0.01   0.02    -0.24  -0.11   0.02     0.24   0.25   0.09
  11   1    -0.04  -0.01   0.02    -0.24   0.11   0.02    -0.24   0.25  -0.09
  12   1     0.12  -0.14   0.00     0.05  -0.08   0.00    -0.00   0.00  -0.15
  13   1    -0.04  -0.01  -0.01    -0.24   0.11  -0.02     0.25  -0.25  -0.08
                     16                     17                     18
                        a                      a                      a 
 Frequencies --   998.2082              1013.6194              1073.5286
 Red. masses --     6.0749                 8.8945                 7.2586
 Frc consts  --     0.0000                 0.0000                 0.0000
 IR Inten    --    86.8867                24.5829               696.9497
 Raman Activ --     0.0000                 0.0000                 0.0000
 Depolar     --     0.0000                 0.0000                 0.0000
 Atom AN      X      Y      Z        X      Y      Z        X      Y      Z
   1   8     0.00   0.00   0.11     0.00  -0.29   0.00    -0.10   0.00   0.00
   2   8     0.00   0.00   0.08    -0.06   0.30   0.00    -0.07  -0.01   0.00
   3   8    -0.00  -0.00   0.08     0.06   0.30  -0.00    -0.07   0.01  -0.00
   4   6     0.00   0.00  -0.36     0.19   0.16  -0.00     0.42  -0.02  -0.00
   5   6     0.00  -0.00  -0.36    -0.19   0.16   0.00     0.42   0.02  -0.00
   6   6    -0.00  -0.00   0.29     0.02  -0.33   0.00    -0.30   0.08   0.00
   7   6    -0.00   0.00   0.29    -0.02  -0.33  -0.00    -0.30  -0.08   0.00
   8   1    -0.00  -0.00  -0.15     0.13   0.17  -0.00    -0.25  -0.33   0.00
   9   1     0.24   0.24  -0.08    -0.25  -0.09  -0.02     0.16   0.02   0.02
  10   1    -0.24  -0.24  -0.08    -0.25  -0.10   0.02     0.16   0.03  -0.02
  11   1    -0.24   0.25  -0.08     0.25  -0.10  -0.02     0.16  -0.03  -0.02
  12   1    -0.00  -0.00  -0.16    -0.13   0.17   0.00    -0.25   0.33   0.00
  13   1     0.24  -0.24  -0.08     0.25  -0.10   0.02     0.16  -0.02   0.02
                     19                     20                     21
                        a                      a                      a 
 Frequencies --  1158.7932              1349.5443              1352.3650
 Red. masses --     9.6166                 3.1275                 3.3256
 Frc consts  --     0.0000                 0.0000                 0.0000
 IR Inten    --     1.1948                57.8975               118.3707
 Raman Activ --     0.0000                 0.0000                 0.0000
 Depolar     --     0.0000                 0.0000                 0.0000
 Atom AN      X      Y      Z        X      Y      Z        X      Y      Z
   1   8     0.00   0.12   0.00     0.02  -0.00   0.00    -0.00  -0.01   0.00
   2   8    -0.07  -0.00   0.00    -0.00   0.02   0.00    -0.01   0.01   0.00
   3   8     0.07  -0.00  -0.00    -0.00  -0.02   0.00     0.01   0.01  -0.00
   4   6     0.55   0.02  -0.00     0.01   0.00  -0.00     0.06   0.01  -0.00
   5   6    -0.55   0.02   0.00     0.01  -0.00  -0.00    -0.06   0.01   0.00
   6   6    -0.26  -0.00  -0.00    -0.19  -0.25  -0.00    -0.20  -0.25  -0.00
   7   6     0.26  -0.00  -0.00    -0.19   0.25  -0.00     0.20  -0.25   0.00
   8   1    -0.20  -0.26   0.00     0.12   0.26   0.00     0.12   0.25   0.00
   9   1     0.05  -0.02   0.02     0.22   0.27  -0.19     0.22   0.27  -0.19
  10   1     0.05  -0.01  -0.02     0.22   0.27   0.19     0.22   0.27   0.19
  11   1    -0.05  -0.02   0.02     0.22  -0.27   0.19    -0.22   0.27  -0.19
  12   1     0.20  -0.26   0.00     0.12  -0.26   0.00    -0.12   0.25  -0.00
  13   1    -0.05  -0.02  -0.02     0.22  -0.27  -0.19    -0.22   0.27   0.19
                     22                     23                     24
                        a                      a                      a 
 Frequencies --  1407.5080              1408.6557              1409.3069
 Red. masses --     1.8594                 1.5821                 1.5902
 Frc consts  --     0.0000                 0.0000                 0.0000
 IR Inten    --    25.7210                 0.0870                36.9452
 Raman Activ --     0.0000                 0.0000                 0.0000
 Depolar     --     0.0000                 0.0000                 0.0000
 Atom AN      X      Y      Z        X      Y      Z        X      Y      Z
   1   8    -0.01   0.00   0.00     0.00   0.00   0.00    -0.00  -0.00  -0.02
   2   8    -0.00   0.06  -0.00     0.00   0.00   0.00    -0.00   0.00  -0.00
   3   8    -0.00  -0.06  -0.00     0.00   0.00  -0.00    -0.00  -0.00  -0.00
   4   6     0.02  -0.03  -0.00    -0.00  -0.00  -0.03     0.00  -0.00   0.03
   5   6     0.02   0.03   0.00    -0.00  -0.00   0.03     0.00   0.00   0.03
   6   6    -0.18   0.03  -0.00    -0.00   0.00  -0.16    -0.00  -0.00   0.16
   7   6    -0.18  -0.03   0.00     0.01   0.00   0.16    -0.00   0.00   0.16
   8   1     0.13   0.31   0.01     0.00   0.00   0.53    -0.00   0.01  -0.52
   9   1     0.24  -0.27   0.22     0.32  -0.06   0.06    -0.31   0.05  -0.05
  10   1     0.23  -0.27  -0.22    -0.31   0.05   0.05     0.31  -0.05  -0.05
  11   1     0.23   0.27  -0.22     0.30   0.04  -0.04     0.32   0.06  -0.06
  12   1     0.13  -0.31   0.00    -0.01   0.01  -0.52     0.00  -0.01  -0.52
  13   1     0.24   0.27   0.22    -0.32  -0.07  -0.06    -0.31  -0.05  -0.05
                     25                     26                     27
                        a                      a                      a 
 Frequencies --  1410.7442              1727.2034              1774.2245
 Red. masses --     1.8741                13.4328                13.3279
 Frc consts  --     0.0000                 0.0000                 0.0000
 IR Inten    --    64.2059                33.2516              1324.7131
 Raman Activ --     0.0000                 0.0000                 0.0000
 Depolar     --     0.0000                 0.0000                 0.0000
 Atom AN      X      Y      Z        X      Y      Z        X      Y      Z
   1   8    -0.00  -0.00   0.00     0.04  -0.00  -0.00    -0.00  -0.05  -0.00
   2   8     0.00  -0.05   0.00    -0.04   0.43   0.00     0.03  -0.42  -0.00
   3   8    -0.00  -0.05  -0.00    -0.04  -0.43   0.00    -0.03  -0.42   0.00
   4   6    -0.03   0.02  -0.00    -0.03  -0.55  -0.00    -0.01   0.56   0.00
   5   6     0.03   0.02   0.00    -0.03   0.55  -0.00     0.01   0.56  -0.00
   6   6     0.18  -0.03  -0.01     0.05   0.05  -0.00    -0.03  -0.05   0.00
   7   6    -0.18  -0.03   0.00     0.05  -0.05  -0.00     0.03  -0.05  -0.00
   8   1    -0.13  -0.30   0.02    -0.01  -0.03   0.00     0.01   0.03  -0.00
   9   1    -0.22   0.27  -0.21     0.00   0.03  -0.02    -0.01  -0.03   0.02
  10   1    -0.25   0.27   0.23     0.00   0.03   0.02    -0.01  -0.03  -0.02
  11   1     0.24   0.27  -0.22     0.00  -0.03   0.02     0.01  -0.03   0.02
  12   1     0.13  -0.30  -0.01    -0.01   0.03   0.00    -0.01   0.03   0.00
  13   1     0.23   0.27   0.22     0.00  -0.03  -0.02     0.01  -0.03  -0.02
                     28                     29                     30
                        a                      a                      a 
 Frequencies --  3032.9960              3033.4281              3042.0098
 Red. masses --     1.9493                 1.9477                 1.4013
 Frc consts  --     0.0000                 0.0000                 0.0000
 IR Inten    --     0.0190                 3.0776                 2.8254
 Raman Activ --     0.0000                 0.0000                 0.0000
 Depolar     --     0.0000                 0.0000                 0.0000
 Atom AN      X      Y      Z        X      Y      Z        X      Y      Z
   1   8     0.00   0.00   0.00    -0.00  -0.00  -0.00     0.00   0.00  -0.00
   2   8    -0.00   0.00  -0.00     0.00  -0.00   0.00     0.00   0.00   0.00
   3   8     0.00   0.00   0.00    -0.00   0.00   0.00     0.00  -0.00   0.00
   4   6    -0.00  -0.00  -0.00     0.00   0.00   0.00    -0.00  -0.01   0.00
   5   6     0.00  -0.00   0.00     0.00  -0.00   0.00    -0.00   0.01   0.00
   6   6    -0.00  -0.01  -0.21     0.00   0.01   0.20     0.00  -0.13   0.02
   7   6     0.00  -0.01   0.20    -0.00  -0.01   0.21     0.00   0.13   0.02
   8   1     0.01  -0.00  -0.03    -0.01   0.00   0.02     0.10  -0.06   0.00
   9   1    -0.05   0.32   0.43     0.05  -0.30  -0.40    -0.04   0.24   0.36
  10   1     0.05  -0.28   0.35    -0.04   0.25  -0.32    -0.05   0.30  -0.43
  11   1    -0.04  -0.26  -0.34    -0.05  -0.28  -0.35    -0.05  -0.29  -0.43
  12   1    -0.00  -0.00   0.02    -0.01  -0.00   0.03     0.10   0.06   0.00
  13   1     0.05   0.29  -0.39     0.05   0.32  -0.43    -0.04  -0.24   0.37
                     31                     32                     33
                        a                      a                      a 
 Frequencies --  3043.1247              3077.8874              3077.9781
 Red. masses --     1.3902                 1.8433                 1.8515
 Frc consts  --     0.0000                 0.0000                 0.0000
 IR Inten    --     2.3418                 3.7237                 1.7371
 Raman Activ --     0.0000                 0.0000                 0.0000
 Depolar     --     0.0000                 0.0000                 0.0000
 Atom AN      X      Y      Z        X      Y      Z        X      Y      Z
   1   8     0.00  -0.00  -0.00    -0.00   0.00  -0.00    -0.00  -0.00   0.00
   2   8    -0.00   0.00   0.00    -0.00   0.00   0.00     0.00  -0.00  -0.00
   3   8     0.00   0.00  -0.00    -0.00  -0.00   0.00    -0.00  -0.00   0.00
   4   6    -0.00  -0.01   0.00     0.00  -0.00  -0.00    -0.00   0.00   0.00
   5   6     0.00  -0.01  -0.00     0.00   0.00  -0.00     0.00   0.00  -0.00
   6   6    -0.00  -0.13   0.02     0.17  -0.11  -0.00    -0.16   0.10   0.00
   7   6     0.00  -0.13  -0.01     0.16   0.10  -0.00     0.17   0.11  -0.00
   8   1     0.11  -0.07   0.00    -0.61   0.32   0.01     0.58  -0.30  -0.00
   9   1    -0.04   0.24   0.37     0.01   0.03   0.06    -0.01  -0.03  -0.06
  10   1    -0.05   0.30  -0.43     0.01   0.03  -0.07    -0.01  -0.04   0.07
  11   1     0.05   0.29   0.42     0.01  -0.03  -0.06     0.01  -0.04  -0.07
  12   1    -0.11  -0.07  -0.00    -0.58  -0.30   0.00    -0.61  -0.32   0.00
  13   1     0.04   0.25  -0.37     0.01  -0.03   0.06     0.01  -0.03   0.07
