      -----------------------------------------------------------      
     |                   =====================                   |     
     |                           x T B                           |     
     |                   =====================                   |     
     |                         S. Grimme                         |     
     |          Mulliken Center for Theoretical Chemistry        |     
     |                    University of Bonn                     |     
      -----------------------------------------------------------      

   * xtb version 6.7.1 (edcfbbe) compiled by 'conda@c0858423619e' on 2025-09-04

   xtb is free software: you can redistribute it and/or modify it under
   the terms of the GNU Lesser General Public License as published by
   the Free Software Foundation, either version 3 of the License, or
   (at your option) any later version.
   
   xtb is distributed in the hope that it will be useful,
   but WITHOUT ANY WARRANTY; without even the implied warranty of
   MERCHANTABILITY or FITNESS FOR A PARTICULAR PURPOSE.  See the
   GNU Lesser General Public License for more details.
   
   Cite this work as:
   * C. Bannwarth, E. Caldeweyher, S. Ehlert, A. Hansen, P. Pracht,
     J. Seibert, S. Spicher, S. Grimme, WIREs Comput. Mol. Sci., 2020, 11,
     e01493. DOI: 10.1002/wcms.1493
   
   for GFN2-xTB:
   * C. Bannwarth, S. Ehlert and S. Grimme., J. Chem. Theory Comput., 2019,
     15, 1652-1671. DOI: 10.1021/acs.jctc.8b01176
   for GFN1-xTB:
   * S. Grimme, C. Bannwarth, P. Shushkov, J. Chem. Theory Comput., 2017,
     13, 1989-2009. DOI: 10.1021/acs.jctc.7b00118
   for GFN0-xTB:
   * P. Pracht, E. Caldeweyher, S. Ehlert, S. Grimme, ChemRxiv, 2019, preprint.
     DOI: 10.26434/chemrxiv.8326202.v1
   for GFN-FF:
   * S. Spicher and S. Grimme, Angew. Chem. Int. Ed., 2020, 59, 15665-15673.
     DOI: 10.1002/anie.202004239
   
   for ALPB and GBSA implicit solvation:
   * S. Ehlert, M. Stahn, S. Spicher, S. Grimme, J. Chem. Theory Comput.,
     2021, 17, 4250-4261. DOI: 10.1021/acs.jctc.1c00471
   
   for ddCOSMO and CPCM-X implicit solvation:
   * M. Stahn, S. Ehlert, S. Grimme, J. Phys. Chem. A,
     2023, XX, XXXX-XXXX. DOI: 10.1021/acs.jpca.3c04382
   
   for DFT-D4:
   * E. Caldeweyher, C. Bannwarth and S. Grimme, J. Chem. Phys., 2017,
     147, 034112. DOI: 10.1063/1.4993215
   * E. Caldeweyher, S. Ehlert, A. Hansen, H. Neugebauer, S. Spicher,
     C. Bannwarth and S. Grimme, J. Chem. Phys., 2019, 150, 154122.
     DOI: 10.1063/1.5090222
   * E. Caldeweyher, J.-M. Mewes, S. Ehlert and S. Grimme, Phys. Chem. Chem. Phys.
     2020, 22, 8499-8512. DOI: 10.1039/D0CP00502A
   
   for sTDA-xTB:
   * S. Grimme and C. Bannwarth, J. Chem. Phys., 2016, 145, 054103.
     DOI: 10.1063/1.4959605
   
   in the mass-spec context:
   * V. Asgeirsson, C. Bauer and S. Grimme, Chem. Sci., 2017, 8, 4879.
     DOI: 10.1039/c7sc00601b
   * J. Koopman and S. Grimme, ACS Omega 2019, 4, 12, 15120-15133.
     DOI: 10.1021/acsomega.9b02011
   
   for metadynamics refer to:
   * S. Grimme, J. Chem. Theory Comput., 2019, 155, 2847-2862
     DOI: 10.1021/acs.jctc.9b00143
   
   for SPH calculations refer to:
   * S. Spicher and S. Grimme, J. Chem. Theory Comput., 2021, 17, 1701-1714
     DOI: 10.1021/acs.jctc.0c01306
   
   for ONIOM refer to:
   * C. Plett, A. Katbashev, S. Ehlert, S. Grimme, M. Bursch,
     Phys. Chem. Chem. Phys., 2023, 25, 17860-17868. DOI: 10.1039/D3CP02178E
   
   for DIPRO refer to:
   * J. Kohn, N. Gildemeister, S. Grimme, D. Fazzi, A. Hansen,
     J. Chem. Phys., 2023, just accepted.
   
   for PTB refer to:
   * S. Grimme, M. Mueller, A. Hansen, J. Chem. Phys., 2023, 158, 124111.
     DOI: 10.1063/5.0137838
   
   with help from (in alphabetical order)
   P. Atkinson, C. Bannwarth, F. Bohle, G. Brandenburg, E. Caldeweyher
   M. Checinski, S. Dohm, S. Ehlert, S. Ehrlich, I. Gerasimov, C. Hölzer
   A. Katbashev, J. Kohn, J. Koopman, C. Lavigne, S. Lehtola, F. März, M. Müller,
   F. Musil, H. Neugebauer, J. Pisarek, C. Plett, P. Pracht, F. Pultar,
   J. Seibert, P. Shushkov, S. Spicher, M. Stahn, M. Steiner, T. Strunk,
   J. Stückrath, T. Rose, and J. Unsleber
   
 * started run on 2026/06/07 at 14:02:16.581     
   ID    Z sym.   atoms
    1    8 O      1-3
    2    6 C      4-7
    3    1 H      8-13

           -------------------------------------------------
          |                Calculation Setup                |
           -------------------------------------------------

          program call               : xtb xtbopt.xyz --hess --alpb water
          hostname                   : fedora
          coordinate file            : xtbopt.xyz
          omp threads                :                    16


           -------------------------------------------------
          |                 G F N 2 - x T B                 |
           -------------------------------------------------

        Reference                      10.1021/acs.jctc.8b01176
      * Hamiltonian:
        H0-scaling (s, p, d)           1.850000    2.230000    2.230000
        zeta-weighting                 0.500000
      * Dispersion:
        s8                             2.700000
        a1                             0.520000
        a2                             5.000000
        s9                             5.000000
      * Repulsion:
        kExp                           1.500000    1.000000
        rExp                           1.000000
      * Coulomb:
        alpha                          2.000000
        third order                    shell-resolved
        anisotropic                    true
        a3                             3.000000
        a5                             4.000000
        cn-shift                       1.200000
        cn-exp                         4.000000
        max-rad                        5.000000

      * Solvation model:               ALPB
        Solvent                        water
        Parameter file                 internal GFN2-xTB/ALPB
        Dielectric constant                8.0200E+01
        Reference state                gsolv [1 M gas/solution]
        Free energy shift                  1.0808E-03 Eh       6.7819E-01 kcal/mol
        Temperature                        2.9815E+02 K
        Density                            1.0000E+00 kg/L
        Solvent mass                       1.8000E+01 g/mol
        Interaction kernel             P16
        Born radius scaling (c1)           1.4744E+00
        Born radii integrator          GBOBC
        Born offset                        0.0000E+00 a0       0.0000E+00 AA
        H-bond correction              true
        Ion screening                  false
        Surface tension                    1.0000E-05 Eh       1.5569E+01 dyn/cm
        Grid points                               230 per atom

          ...................................................
          :                      SETUP                      :
          :.................................................:
          :  # basis functions                  34          :
          :  # atomic orbitals                  34          :
          :  # shells                           20          :
          :  # electrons                        40          :
          :  max. iterations                   250          :
          :  Hamiltonian                  GFN2-xTB          :
          :  restarted?                      false          :
          :  GBSA solvation                   true          :
          :  PC potential                    false          :
          :  electronic temp.          300.0000000     K    :
          :  accuracy                    1.0000000          :
          :  -> integral cutoff          0.2500000E+02      :
          :  -> integral neglect         0.1000000E-07      :
          :  -> SCF convergence          0.1000000E-05 Eh   :
          :  -> wf. convergence          0.1000000E-03 e    :
          :  Broyden damping             0.4000000          :
          :  net charge                          0          :
          :  unpaired electrons                  0          :
          ...................................................

 iter      E             dE          RMSdq      gap      omega  full diag
   1    -23.9962160 -0.239962E+02  0.551E+00    4.80       0.0  T
   2    -24.0751818 -0.789658E-01  0.260E+00    3.74       1.0  T
   3    -24.0787024 -0.352062E-02  0.148E+00    4.07       1.0  T
   4    -24.0807207 -0.201829E-02  0.165E-01    3.89       1.0  T
   5    -24.0808913 -0.170608E-03  0.651E-02    3.93       1.0  T
   6    -24.0808898  0.151791E-05  0.224E-02    3.92       1.2  T
   7    -24.0808931 -0.325860E-05  0.563E-03    3.93       4.9  T
   8    -24.0808932 -0.115333E-06  0.305E-03    3.93       9.1  T
   9    -24.0808932 -0.682574E-07  0.320E-04    3.93      86.8  T
  10    -24.0808932 -0.626923E-09  0.985E-05    3.93     281.6  T

   *** convergence criteria satisfied after 10 iterations ***

         #    Occupation            Energy/Eh            Energy/eV
      -------------------------------------------------------------
         1        2.0000           -0.7733655             -21.0443
       ...           ...                  ...                  ...
        14        2.0000           -0.4992889             -13.5863
        15        2.0000           -0.4929875             -13.4149
        16        2.0000           -0.4839061             -13.1678
        17        2.0000           -0.4835295             -13.1575
        18        2.0000           -0.4803578             -13.0712
        19        2.0000           -0.4574169             -12.4469
        20        2.0000           -0.4277483             -11.6396 (HOMO)
        21                         -0.2834448              -7.7129 (LUMO)
        22                         -0.2296897              -6.2502
        23                          0.0035393               0.0963
        24                          0.1508852               4.1058
        25                          0.1621496               4.4123
       ...                                ...                  ...
        34                          0.6673370              18.1592
      -------------------------------------------------------------
                  HL-Gap            0.1443035 Eh            3.9267 eV
             Fermi-level           -0.3555966 Eh           -9.6763 eV

 SCC (total)                   0 d,  0 h,  0 min,  0.157 sec
 SCC setup                      ...        0 min,  0.004 sec (  2.318%)
 Dispersion                     ...        0 min,  0.005 sec (  3.189%)
 classical contributions        ...        0 min,  0.002 sec (  1.219%)
 integral evaluation            ...        0 min,  0.007 sec (  4.466%)
 iterations                     ...        0 min,  0.132 sec ( 84.033%)
 molecular gradient             ...        0 min,  0.007 sec (  4.659%)
 printout                       ...        0 min,  0.000 sec (  0.085%)

         :::::::::::::::::::::::::::::::::::::::::::::::::::::
         ::                     SUMMARY                     ::
         :::::::::::::::::::::::::::::::::::::::::::::::::::::
         :: total energy             -23.843251539126 Eh    ::
         :: total w/o Gsasa/hb       -23.843172623676 Eh    ::
         :: gradient norm              0.000505864744 Eh/a0 ::
         :: HOMO-LUMO gap              3.926698688525 eV    ::
         ::.................................................::
         :: SCC energy               -24.080884902990 Eh    ::
         :: -> isotropic ES            0.094172083195 Eh    ::
         :: -> anisotropic ES         -0.003506928144 Eh    ::
         :: -> anisotropic XC          0.002599152601 Eh    ::
         :: -> dispersion             -0.006720911121 Eh    ::
         :: -> Gsolv                  -0.019515660776 Eh    ::
         ::    -> Gelec               -0.019436745326 Eh    ::
         ::    -> Gsasa                0.003574616253 Eh    ::
         ::    -> Ghb                 -0.004734291402 Eh    ::
         ::    -> Gshift               0.001080759698 Eh    ::
         :: repulsion energy           0.237633363864 Eh    ::
         :: add. restraining           0.000000000000 Eh    ::
         :: total charge               0.000000000000 e     ::
         :::::::::::::::::::::::::::::::::::::::::::::::::::::

           ------------------------------------------------- 
          |                Numerical Hessian                |
           ------------------------------------------------- 
step length          :   0.00500
SCC accuracy         :   0.30000
Hessian scale factor :   1.00000
frozen atoms in %    :   0.00000    0
RMS gradient         :   0.00050
estimated CPU  time      0.44 min
estimated wall time      0.03 min

writing file <hessian>.

 projected vibrational frequencies (cm⁻¹)
eigval :       -0.00    -0.00    -0.00    -0.00     0.00     0.00
eigval :       27.25    75.17    78.32   119.60   169.94   334.12
eigval :      375.96   506.16   539.52   591.87   678.74   852.03
eigval :      933.78   960.34   994.85   998.21  1013.62  1073.53
eigval :     1158.79  1349.54  1352.37  1407.51  1408.66  1409.31
eigval :     1410.74  1727.20  1774.22  3033.00  3033.43  3042.01
eigval :     3043.12  3077.89  3077.98
           -------------------------------------------------
          |                Property Printout                |
           -------------------------------------------------

    * Orbital Energies and Occupations

         #    Occupation            Energy/Eh            Energy/eV
      -------------------------------------------------------------
         1        2.0000           -0.7733668             -21.0444
       ...           ...                  ...                  ...
         8        2.0000           -0.6180507             -16.8180
         9        2.0000           -0.5803348             -15.7917
        10        2.0000           -0.5709618             -15.5367
        11        2.0000           -0.5658526             -15.3976
        12        2.0000           -0.5368788             -14.6092
        13        2.0000           -0.5056567             -13.7596
        14        2.0000           -0.4992893             -13.5864
        15        2.0000           -0.4929879             -13.4149
        16        2.0000           -0.4839066             -13.1678
        17        2.0000           -0.4835300             -13.1575
        18        2.0000           -0.4803583             -13.0712
        19        2.0000           -0.4574170             -12.4469
        20        2.0000           -0.4277484             -11.6396 (HOMO)
        21                         -0.2834453              -7.7129 (LUMO)
        22                         -0.2296904              -6.2502
        23                          0.0035383               0.0963
        24                          0.1508845               4.1058
        25                          0.1621491               4.4123
        26                          0.1640792               4.4648
        27                          0.1642945               4.4707
        28                          0.1870714               5.0905
        29                          0.2139126               5.8209
        30                          0.2153855               5.8609
        31                          0.2399887               6.5304
       ...                                ...                  ...
        34                          0.6673364              18.1591
      -------------------------------------------------------------
                  HL-Gap            0.1443030 Eh            3.9267 eV
             Fermi-level           -0.3555968 Eh           -9.6763 eV

     #   Z          covCN         q      C6AA      α(0)
     1   8 O        1.709    -0.268    18.434     5.797
     2   8 O        0.856    -0.425    22.192     6.316
     3   8 O        0.856    -0.425    22.192     6.316
     4   6 C        2.696     0.379    20.584     7.425
     5   6 C        2.696     0.379    20.584     7.425
     6   6 C        3.755    -0.182    24.110     7.001
     7   6 C        3.755    -0.182    24.110     7.001
     8   1 H        0.925     0.105     1.743     2.065
     9   1 H        0.925     0.129     1.545     1.944
    10   1 H        0.925     0.128     1.547     1.945
    11   1 H        0.925     0.128     1.547     1.945
    12   1 H        0.925     0.105     1.743     2.065
    13   1 H        0.925     0.129     1.545     1.944

 Mol. C6AA /au·bohr⁶  :       1607.414810
 Mol. C8AA /au·bohr⁸  :      35765.428625
 Mol. α(0) /au        :         59.189558


Wiberg/Mayer (AO) data.
largest (>0.10) Wiberg bond orders for each atom

 ---------------------------------------------------------------------------
     #   Z sym  total        # sym  WBO       # sym  WBO       # sym  WBO
 ---------------------------------------------------------------------------
     1   8 O    2.357 --     5 C    1.024     4 C    1.024     2 O    0.127
                             3 O    0.127
     2   8 O    2.048 --     4 C    1.784     1 O    0.127
     3   8 O    2.048 --     5 C    1.784     1 O    0.127
     4   6 C    3.887 --     2 O    1.784     1 O    1.024     6 C    1.016
     5   6 C    3.887 --     3 O    1.784     1 O    1.024     7 C    1.016
     6   6 C    3.973 --     4 C    1.016     8 H    0.976    10 H    0.942
                             9 H    0.941
     7   6 C    3.973 --     5 C    1.016    12 H    0.976    11 H    0.941
                            13 H    0.941
     8   1 H    0.988 --     6 C    0.976
     9   1 H    0.983 --     6 C    0.941
    10   1 H    0.984 --     6 C    0.942
    11   1 H    0.983 --     7 C    0.941
    12   1 H    0.988 --     7 C    0.976
    13   1 H    0.983 --     7 C    0.941
 ---------------------------------------------------------------------------

Topologies differ in total number of bonds
Writing topology from bond orders to xtbtopo.mol

molecular dipole:
                 x           y           z       tot (Debye)
 q only:       -0.000       2.707       0.001
   full:       -0.000       2.761       0.001       7.019
molecular quadrupole (traceless):
                xx          xy          yy          xz          yz          zz
 q only:        8.595       0.000      -6.561       0.027       0.001      -2.034
  q+dip:        7.104       0.000      -7.746       0.031       0.001       0.642
   full:        6.855       0.000      -8.603       0.030       0.001       1.748

           -------------------------------------------------
          |               Frequency Printout                |
           -------------------------------------------------
 projected vibrational frequencies (cm⁻¹)
eigval :       -0.00    -0.00    -0.00    -0.00     0.00     0.00
eigval :       27.25    75.17    78.32   119.60   169.94   334.12
eigval :      375.96   506.16   539.52   591.87   678.74   852.03
eigval :      933.78   960.34   994.85   998.21  1013.62  1073.53
eigval :     1158.79  1349.54  1352.37  1407.51  1408.66  1409.31
eigval :     1410.74  1727.20  1774.22  3033.00  3033.43  3042.01
eigval :     3043.12  3077.89  3077.98
 reduced masses (amu)
   1: 11.25   2: 14.13   3: 12.25   4: 12.72   5: 13.31   6: 11.44   7: 13.41   8:  2.00
   9:  1.37  10: 12.90  11: 12.69  12: 11.16  13: 11.00  14: 12.69  15:  8.88  16:  9.61
  17: 11.35  18: 12.37  19: 13.98  20:  9.60  21:  5.82  22:  6.07  23:  8.89  24:  7.26
  25:  9.62  26:  3.13  27:  3.33  28:  1.86  29:  1.58  30:  1.59  31:  1.87  32: 13.43
  33: 13.33  34:  1.95  35:  1.95  36:  1.40  37:  1.39  38:  1.84  39:  1.85
 IR intensities (km·mol⁻¹)
   1:  8.70   2:  3.35   3:  1.75   4:  2.11   5:  4.58   6:  8.12   7:  0.00   8:  2.47
   9:  0.00  10:  1.98  11:  2.68  12:  2.25  13:  0.05  14: 67.51  15:  0.00  16: 23.96
  17:  0.00  18: 20.22  19:809.42  20:114.40  21:  0.00  22: 86.89  23: 24.58  24:696.95
  25:  1.19  26: 57.90  27:118.37  28: 25.72  29:  0.09  30: 36.95  31: 64.21  32: 33.25
  33:******  34:  0.02  35:  3.08  36:  2.83  37:  2.34  38:  3.72  39:  1.74
 Raman intensities (Ä⁴*amu⁻¹)
   1:  0.00   2:  0.00   3:  0.00   4:  0.00   5:  0.00   6:  0.00   7:  0.00   8:  0.00
   9:  0.00  10:  0.00  11:  0.00  12:  0.00  13:  0.00  14:  0.00  15:  0.00  16:  0.00
  17:  0.00  18:  0.00  19:  0.00  20:  0.00  21:  0.00  22:  0.00  23:  0.00  24:  0.00
  25:  0.00  26:  0.00  27:  0.00  28:  0.00  29:  0.00  30:  0.00  31:  0.00  32:  0.00
  33:  0.00  34:  0.00  35:  0.00  36:  0.00  37:  0.00  38:  0.00  39:  0.00
Molecule has the following symmetry elements: (C2) 2*(sigma) 
It seems to be the C2v point group
 output can be read by thermo (or use thermo option).
 writing <g98.out> molden fake output.
 recommended (thermochemical) frequency scaling factor: 1.0
           -------------------------------------------------
          |             Thermodynamic Functions             |
           -------------------------------------------------

c2v symmetry found (for desy threshold:  0.10E+00) used in thermo

          ...................................................
          :                      SETUP                      :
          :.................................................:
          :  # frequencies                          33      :
          :  # imaginary freq.                       0      :
          :  linear?                             false      :
          :  only rotor calc.                    false      :
          :  symmetry                              c2v      :
          :  rotational number                       2      :
          :  scaling factor                  1.0000000      :
          :  rotor cutoff                   50.0000000 cm⁻¹ :
          :  imag. cutoff                  -20.0000000 cm⁻¹ :
          :.................................................:

    mode    ω/cm⁻¹     T·S(HO)/kcal·mol⁻¹    T·S(FR)/kcal·mol⁻¹   T·S(vib)
   ------------------------------------------------------------------------
       1     27.25    -1.79482 (  8.11%)    -1.23554 ( 91.89%)    -1.28091
       2     75.17    -1.19655 ( 83.63%)    -0.93549 ( 16.37%)    -1.15381
       3     78.32    -1.17251 ( 85.75%)    -0.92334 ( 14.25%)    -1.13701
       4    119.60    -0.92630 ( 97.04%)    -0.79801 (  2.96%)    -0.92250
       5    169.94    -0.72635 ( 99.26%)    -0.69400 (  0.74%)    -0.72611
   ------------------------------------------------------------------------

   temp. (K)  partition function   enthalpy   heat capacity  entropy
                                   cal/mol     cal/K/mol   cal/K/mol   J/K/mol
 298.15  VIB   727.                 3468.986     19.762     22.730
         ROT  0.111E+06              888.752      2.981     26.075
         INT  0.810E+08             4357.739     22.743     48.805
         TR   0.998E+27             1481.254      4.968     39.762
         TOT                        5838.9927    27.7110    88.5670   370.5642

       T/K    H(0)-H(T)+PV         H(T)/Eh          T*S/Eh         G(T)/Eh
   ------------------------------------------------------------------------
    298.15    0.930503E-02    0.104142E+00    0.420810E-01    0.620613E-01
   ------------------------------------------------------------------------

         :::::::::::::::::::::::::::::::::::::::::::::::::::::
         ::                  THERMODYNAMIC                  ::
         :::::::::::::::::::::::::::::::::::::::::::::::::::::
         :: total free energy         -23.781190219615 Eh   ::
         ::.................................................::
         :: total energy              -23.843251539239 Eh   ::
         :: zero point energy           0.094837314060 Eh   ::
         :: G(RRHO) w/o ZPVE           -0.032775994435 Eh   ::
         :: G(RRHO) contrib.            0.062061319625 Eh   ::
         :::::::::::::::::::::::::::::::::::::::::::::::::::::

           -------------------------------------------------
          | TOTAL ENERGY              -23.843251539239 Eh   |
          | TOTAL ENTHALPY            -23.739109198019 Eh   |
          | TOTAL FREE ENERGY         -23.781190219615 Eh   |
          | GRADIENT NORM               0.000504293949 Eh/α |
          | HOMO-LUMO GAP               3.926685092169 eV   |
           -------------------------------------------------

------------------------------------------------------------------------
 * finished run on 2026/06/07 at 14:02:17.493     
------------------------------------------------------------------------
 total:
 * wall-time:     0 d,  0 h,  0 min,  0.911 sec
 *  cpu-time:     0 d,  0 h,  0 min, 13.489 sec
 * ratio c/w:    14.802 speedup
 SCF:
 * wall-time:     0 d,  0 h,  0 min,  0.158 sec
 *  cpu-time:     0 d,  0 h,  0 min,  2.306 sec
 * ratio c/w:    14.559 speedup
 analytical hessian:
 * wall-time:     0 d,  0 h,  0 min,  0.724 sec
 *  cpu-time:     0 d,  0 h,  0 min, 10.779 sec
 * ratio c/w:    14.878 speedup

