      -----------------------------------------------------------      
     |                   =====================                   |     
     |                           x T B                           |     
     |                   =====================                   |     
     |                         S. Grimme                         |     
     |          Mulliken Center for Theoretical Chemistry        |     
     |                    University of Bonn                     |     
      -----------------------------------------------------------      

   * xtb version 6.7.1 (edcfbbe) compiled by 'conda@c0858423619e' on 2025-09-04

   xtb is free software: you can redistribute it and/or modify it under
   the terms of the GNU Lesser General Public License as published by
   the Free Software Foundation, either version 3 of the License, or
   (at your option) any later version.
   
   xtb is distributed in the hope that it will be useful,
   but WITHOUT ANY WARRANTY; without even the implied warranty of
   MERCHANTABILITY or FITNESS FOR A PARTICULAR PURPOSE.  See the
   GNU Lesser General Public License for more details.
   
   Cite this work as:
   * C. Bannwarth, E. Caldeweyher, S. Ehlert, A. Hansen, P. Pracht,
     J. Seibert, S. Spicher, S. Grimme, WIREs Comput. Mol. Sci., 2020, 11,
     e01493. DOI: 10.1002/wcms.1493
   
   for GFN2-xTB:
   * C. Bannwarth, S. Ehlert and S. Grimme., J. Chem. Theory Comput., 2019,
     15, 1652-1671. DOI: 10.1021/acs.jctc.8b01176
   for GFN1-xTB:
   * S. Grimme, C. Bannwarth, P. Shushkov, J. Chem. Theory Comput., 2017,
     13, 1989-2009. DOI: 10.1021/acs.jctc.7b00118
   for GFN0-xTB:
   * P. Pracht, E. Caldeweyher, S. Ehlert, S. Grimme, ChemRxiv, 2019, preprint.
     DOI: 10.26434/chemrxiv.8326202.v1
   for GFN-FF:
   * S. Spicher and S. Grimme, Angew. Chem. Int. Ed., 2020, 59, 15665-15673.
     DOI: 10.1002/anie.202004239
   
   for ALPB and GBSA implicit solvation:
   * S. Ehlert, M. Stahn, S. Spicher, S. Grimme, J. Chem. Theory Comput.,
     2021, 17, 4250-4261. DOI: 10.1021/acs.jctc.1c00471
   
   for ddCOSMO and CPCM-X implicit solvation:
   * M. Stahn, S. Ehlert, S. Grimme, J. Phys. Chem. A,
     2023, XX, XXXX-XXXX. DOI: 10.1021/acs.jpca.3c04382
   
   for DFT-D4:
   * E. Caldeweyher, C. Bannwarth and S. Grimme, J. Chem. Phys., 2017,
     147, 034112. DOI: 10.1063/1.4993215
   * E. Caldeweyher, S. Ehlert, A. Hansen, H. Neugebauer, S. Spicher,
     C. Bannwarth and S. Grimme, J. Chem. Phys., 2019, 150, 154122.
     DOI: 10.1063/1.5090222
   * E. Caldeweyher, J.-M. Mewes, S. Ehlert and S. Grimme, Phys. Chem. Chem. Phys.
     2020, 22, 8499-8512. DOI: 10.1039/D0CP00502A
   
   for sTDA-xTB:
   * S. Grimme and C. Bannwarth, J. Chem. Phys., 2016, 145, 054103.
     DOI: 10.1063/1.4959605
   
   in the mass-spec context:
   * V. Asgeirsson, C. Bauer and S. Grimme, Chem. Sci., 2017, 8, 4879.
     DOI: 10.1039/c7sc00601b
   * J. Koopman and S. Grimme, ACS Omega 2019, 4, 12, 15120-15133.
     DOI: 10.1021/acsomega.9b02011
   
   for metadynamics refer to:
   * S. Grimme, J. Chem. Theory Comput., 2019, 155, 2847-2862
     DOI: 10.1021/acs.jctc.9b00143
   
   for SPH calculations refer to:
   * S. Spicher and S. Grimme, J. Chem. Theory Comput., 2021, 17, 1701-1714
     DOI: 10.1021/acs.jctc.0c01306
   
   for ONIOM refer to:
   * C. Plett, A. Katbashev, S. Ehlert, S. Grimme, M. Bursch,
     Phys. Chem. Chem. Phys., 2023, 25, 17860-17868. DOI: 10.1039/D3CP02178E
   
   for DIPRO refer to:
   * J. Kohn, N. Gildemeister, S. Grimme, D. Fazzi, A. Hansen,
     J. Chem. Phys., 2023, just accepted.
   
   for PTB refer to:
   * S. Grimme, M. Mueller, A. Hansen, J. Chem. Phys., 2023, 158, 124111.
     DOI: 10.1063/5.0137838
   
   with help from (in alphabetical order)
   P. Atkinson, C. Bannwarth, F. Bohle, G. Brandenburg, E. Caldeweyher
   M. Checinski, S. Dohm, S. Ehlert, S. Ehrlich, I. Gerasimov, C. Hölzer
   A. Katbashev, J. Kohn, J. Koopman, C. Lavigne, S. Lehtola, F. März, M. Müller,
   F. Musil, H. Neugebauer, J. Pisarek, C. Plett, P. Pracht, F. Pultar,
   J. Seibert, P. Shushkov, S. Spicher, M. Stahn, M. Steiner, T. Strunk,
   J. Stückrath, T. Rose, and J. Unsleber
   
 * started run on 2026/06/07 at 14:02:18.344     
   ID    Z sym.   atoms
    1    8 O      1, 2
    2    6 C      3, 4
    3    1 H      5-8

           -------------------------------------------------
          |                Calculation Setup                |
           -------------------------------------------------

          program call               : xtb xtbopt.xyz --hess
          hostname                   : fedora
          coordinate file            : xtbopt.xyz
          omp threads                :                    16


           -------------------------------------------------
          |                 G F N 2 - x T B                 |
           -------------------------------------------------

        Reference                      10.1021/acs.jctc.8b01176
      * Hamiltonian:
        H0-scaling (s, p, d)           1.850000    2.230000    2.230000
        zeta-weighting                 0.500000
      * Dispersion:
        s8                             2.700000
        a1                             0.520000
        a2                             5.000000
        s9                             5.000000
      * Repulsion:
        kExp                           1.500000    1.000000
        rExp                           1.000000
      * Coulomb:
        alpha                          2.000000
        third order                    shell-resolved
        anisotropic                    true
        a3                             3.000000
        a5                             4.000000
        cn-shift                       1.200000
        cn-exp                         4.000000
        max-rad                        5.000000


          ...................................................
          :                      SETUP                      :
          :.................................................:
          :  # basis functions                  20          :
          :  # atomic orbitals                  20          :
          :  # shells                           12          :
          :  # electrons                        24          :
          :  max. iterations                   250          :
          :  Hamiltonian                  GFN2-xTB          :
          :  restarted?                      false          :
          :  GBSA solvation                  false          :
          :  PC potential                    false          :
          :  electronic temp.          300.0000000     K    :
          :  accuracy                    1.0000000          :
          :  -> integral cutoff          0.2500000E+02      :
          :  -> integral neglect         0.1000000E-07      :
          :  -> SCF convergence          0.1000000E-05 Eh   :
          :  -> wf. convergence          0.1000000E-03 e    :
          :  Broyden damping             0.4000000          :
          :  net charge                          0          :
          :  unpaired electrons                  0          :
          ...................................................

 iter      E             dE          RMSdq      gap      omega  full diag
   1    -14.5563509 -0.145564E+02  0.495E+00    6.21       0.0  T
   2    -14.5910618 -0.347109E-01  0.256E+00    4.96       1.0  T
   3    -14.5935397 -0.247790E-02  0.149E+00    5.42       1.0  T
   4    -14.5955089 -0.196923E-02  0.163E-01    5.18       1.0  T
   5    -14.5955277 -0.187535E-04  0.941E-02    5.24       1.0  T
   6    -14.5955745 -0.468325E-04  0.175E-02    5.21       2.0  T
   7    -14.5955758 -0.127078E-05  0.719E-03    5.21       4.9  T
   8    -14.5955758 -0.338631E-07  0.181E-03    5.21      19.5  T
   9    -14.5955758 -0.108177E-07  0.566E-04    5.21      62.4  T
  10    -14.5955758  0.545292E-09  0.378E-04    5.21      93.6  T

   *** convergence criteria satisfied after 10 iterations ***

         #    Occupation            Energy/Eh            Energy/eV
      -------------------------------------------------------------
         1        2.0000           -0.7485164             -20.3682
       ...           ...                  ...                  ...
         6        2.0000           -0.5827540             -15.8575
         7        2.0000           -0.5638765             -15.3439
         8        2.0000           -0.5005837             -13.6216
         9        2.0000           -0.4925319             -13.4025
        10        2.0000           -0.4891823             -13.3113
        11        2.0000           -0.4781428             -13.0109
        12        2.0000           -0.4273649             -11.6292 (HOMO)
        13                         -0.2358421              -6.4176 (LUMO)
        14                          0.0574151               1.5623
        15                          0.1541036               4.1934
        16                          0.1575624               4.2875
        17                          0.1869262               5.0865
       ...                                ...                  ...
        20                          0.6469696              17.6049
      -------------------------------------------------------------
                  HL-Gap            0.1915228 Eh            5.2116 eV
             Fermi-level           -0.3316035 Eh           -9.0234 eV

 SCC (total)                   0 d,  0 h,  0 min,  0.022 sec
 SCC setup                      ...        0 min,  0.001 sec (  3.952%)
 Dispersion                     ...        0 min,  0.005 sec ( 22.759%)
 classical contributions        ...        0 min,  0.004 sec ( 18.251%)
 integral evaluation            ...        0 min,  0.002 sec (  8.695%)
 iterations                     ...        0 min,  0.007 sec ( 32.603%)
 molecular gradient             ...        0 min,  0.003 sec ( 12.667%)
 printout                       ...        0 min,  0.000 sec (  0.859%)

         :::::::::::::::::::::::::::::::::::::::::::::::::::::
         ::                     SUMMARY                     ::
         :::::::::::::::::::::::::::::::::::::::::::::::::::::
         :: total energy             -14.459942458340 Eh    ::
         :: gradient norm              0.000249803235 Eh/a0 ::
         :: HOMO-LUMO gap              5.211601825561 eV    ::
         ::.................................................::
         :: SCC energy               -14.595575356447 Eh    ::
         :: -> isotropic ES            0.049081685561 Eh    ::
         :: -> anisotropic ES          0.001334982582 Eh    ::
         :: -> anisotropic XC          0.000294179823 Eh    ::
         :: -> dispersion             -0.002791813148 Eh    ::
         :: repulsion energy           0.135632898108 Eh    ::
         :: add. restraining           0.000000000000 Eh    ::
         :: total charge               0.000000000000 e     ::
         :::::::::::::::::::::::::::::::::::::::::::::::::::::

           ------------------------------------------------- 
          |                Numerical Hessian                |
           ------------------------------------------------- 
step length          :   0.00500
SCC accuracy         :   0.30000
Hessian scale factor :   1.00000
frozen atoms in %    :   0.00000    0
RMS gradient         :   0.00026
estimated CPU  time      0.02 min
estimated wall time      0.00 min

writing file <hessian>.

 projected vibrational frequencies (cm⁻¹)
eigval :       -0.00    -0.00     0.00     0.00     0.00     0.00
eigval :       28.38   399.37   528.79   564.75   657.90   897.40
eigval :      984.13  1009.22  1158.91  1245.19  1367.68  1440.20
eigval :     1441.14  1802.80  3036.87  3042.75  3075.08  3452.60
           -------------------------------------------------
          |                Property Printout                |
           -------------------------------------------------

    * Orbital Energies and Occupations

         #    Occupation            Energy/Eh            Energy/eV
      -------------------------------------------------------------
         1        2.0000           -0.7485164             -20.3682
         2        2.0000           -0.7218616             -19.6429
         3        2.0000           -0.6680083             -18.1774
         4        2.0000           -0.6203703             -16.8811
         5        2.0000           -0.5869579             -15.9719
         6        2.0000           -0.5827539             -15.8575
         7        2.0000           -0.5638761             -15.3438
         8        2.0000           -0.5005822             -13.6215
         9        2.0000           -0.4925327             -13.4025
        10        2.0000           -0.4891832             -13.3114
        11        2.0000           -0.4781396             -13.0108
        12        2.0000           -0.4273611             -11.6291 (HOMO)
        13                         -0.2358425              -6.4176 (LUMO)
        14                          0.0574148               1.5623
        15                          0.1541024               4.1933
        16                          0.1575610               4.2875
        17                          0.1869259               5.0865
        18                          0.2055112               5.5922
        19                          0.2725261               7.4158
        20                          0.6469696              17.6049
      -------------------------------------------------------------
                  HL-Gap            0.1915185 Eh            5.2115 eV
             Fermi-level           -0.3316018 Eh           -9.0233 eV

     #   Z          covCN         q      C6AA      α(0)
     1   8 O        1.660    -0.379    20.454     6.105
     2   8 O        0.856    -0.407    21.813     6.262
     3   6 C        3.753    -0.147    23.405     6.899
     4   6 C        2.686     0.366    20.797     7.463
     5   1 H        0.925     0.082     1.961     2.190
     6   1 H        0.925     0.082     1.962     2.190
     7   1 H        0.925     0.076     2.018     2.221
     8   1 H        0.804     0.328     0.643     1.259

 Mol. C6AA /au·bohr⁶  :        553.812683
 Mol. C8AA /au·bohr⁸  :      11870.570092
 Mol. α(0) /au        :         34.589890


Wiberg/Mayer (AO) data.
largest (>0.10) Wiberg bond orders for each atom

 ---------------------------------------------------------------------------
     #   Z sym  total        # sym  WBO       # sym  WBO       # sym  WBO
 ---------------------------------------------------------------------------
     1   8 O    2.194 --     4 C    1.126     8 H    0.868     2 O    0.172
     2   8 O    2.042 --     4 C    1.772     1 O    0.172
     3   6 C    3.991 --     4 C    0.995     7 H    0.983     6 H    0.962
                             5 H    0.961
     4   6 C    3.914 --     2 O    1.772     1 O    1.126     3 C    0.995
     5   1 H    0.993 --     3 C    0.961
     6   1 H    0.993 --     3 C    0.962
     7   1 H    0.994 --     3 C    0.983
     8   1 H    0.892 --     1 O    0.868
 ---------------------------------------------------------------------------

Topologies differ in total number of bonds
Writing topology from bond orders to xtbtopo.mol

molecular dipole:
                 x           y           z       tot (Debye)
 q only:        0.540       0.525      -0.000
   full:        0.486       0.634      -0.001       2.030
molecular quadrupole (traceless):
                xx          xy          yy          xz          yz          zz
 q only:        1.803      -4.629      -1.404      -0.001      -0.000      -0.399
  q+dip:        2.075      -5.763      -2.477      -0.002      -0.000       0.402
   full:        1.788      -5.917      -2.647      -0.002      -0.000       0.859

           -------------------------------------------------
          |               Frequency Printout                |
           -------------------------------------------------
 projected vibrational frequencies (cm⁻¹)
eigval :       -0.00    -0.00     0.00     0.00     0.00     0.00
eigval :       28.38   399.37   528.79   564.75   657.90   897.40
eigval :      984.13  1009.22  1158.91  1245.19  1367.68  1440.20
eigval :     1441.14  1802.80  3036.87  3042.75  3075.08  3452.60
 reduced masses (amu)
   1: 11.11   2: 12.61   3: 13.98   4: 12.58   5: 13.11   6: 13.97   7:  2.11   8: 10.50
   9:  6.26  10: 12.30  11:  5.23  12: 10.88  13:  6.04  14:  5.86  15:  7.23  16:  9.33
Molecule has the following symmetry elements: (sigma) 
It seems to be the Cs point group
  17:  3.56  18:  1.58  19:  1.66  20: 13.23  21:  1.95  22:  1.39  23:  1.83  24:  1.85
 IR intensities (km·mol⁻¹)
   1:  0.43   2:  0.62   3:  2.48   4:  1.69   5:  0.02   6:  0.48   7:  0.55   8:  3.62
   9: 18.09  10: 47.94  11:186.06  12:  5.73  13: 43.11  14: 40.22  15:217.62  16:178.67
  17: 50.00  18:  9.55  19: 22.56  20:511.05  21:  4.15  22:  2.33  23:  7.98  24: 29.66
 Raman intensities (Ä⁴*amu⁻¹)
   1:  0.00   2:  0.00   3:  0.00   4:  0.00   5:  0.00   6:  0.00   7:  0.00   8:  0.00
   9:  0.00  10:  0.00  11:  0.00  12:  0.00  13:  0.00  14:  0.00  15:  0.00  16:  0.00
  17:  0.00  18:  0.00  19:  0.00  20:  0.00  21:  0.00  22:  0.00  23:  0.00  24:  0.00
 output can be read by thermo (or use thermo option).
 writing <g98.out> molden fake output.
 recommended (thermochemical) frequency scaling factor: 1.0
           -------------------------------------------------
          |             Thermodynamic Functions             |
           -------------------------------------------------

cs  symmetry found (for desy threshold:  0.10E+00) used in thermo

          ...................................................
          :                      SETUP                      :
          :.................................................:
          :  # frequencies                          18      :
          :  # imaginary freq.                       0      :
          :  linear?                             false      :
          :  only rotor calc.                    false      :
          :  symmetry                               cs      :
          :  rotational number                       1      :
          :  scaling factor                  1.0000000      :
          :  rotor cutoff                   50.0000000 cm⁻¹ :
          :  imag. cutoff                  -20.0000000 cm⁻¹ :
          :.................................................:

    mode    ω/cm⁻¹     T·S(HO)/kcal·mol⁻¹    T·S(FR)/kcal·mol⁻¹   T·S(vib)
   ------------------------------------------------------------------------
       1     28.38    -1.77086 (  9.40%)    -1.22156 ( 90.60%)    -1.27322
   ------------------------------------------------------------------------

   temp. (K)  partition function   enthalpy   heat capacity  entropy
                                   cal/mol     cal/K/mol   cal/K/mol   J/K/mol
 298.15  VIB   11.5                 1186.811      7.768      7.169
         ROT  0.358E+05              888.752      2.981     23.819
         INT  0.412E+06             2075.563     10.749     30.987
         TR   0.450E+27             1481.254      4.968     38.181
         TOT                        3556.8171    15.7171    69.1678   289.3981

       T/K    H(0)-H(T)+PV         H(T)/Eh          T*S/Eh         G(T)/Eh
   ------------------------------------------------------------------------
    298.15    0.566815E-02    0.652039E-01    0.328639E-01    0.323400E-01
   ------------------------------------------------------------------------

         :::::::::::::::::::::::::::::::::::::::::::::::::::::
         ::                  THERMODYNAMIC                  ::
         :::::::::::::::::::::::::::::::::::::::::::::::::::::
         :: total free energy         -14.427602439143 Eh   ::
         ::.................................................::
         :: total energy              -14.459942459080 Eh   ::
         :: zero point energy           0.059535729562 Eh   ::
         :: G(RRHO) w/o ZPVE           -0.027195709625 Eh   ::
         :: G(RRHO) contrib.            0.032340019937 Eh   ::
         :::::::::::::::::::::::::::::::::::::::::::::::::::::

           -------------------------------------------------
          | TOTAL ENERGY              -14.459942459080 Eh   |
          | TOTAL ENTHALPY            -14.394738580596 Eh   |
          | TOTAL FREE ENERGY         -14.427602439143 Eh   |
          | GRADIENT NORM               0.000255211448 Eh/α |
          | HOMO-LUMO GAP               5.211484899295 eV   |
           -------------------------------------------------

------------------------------------------------------------------------
 * finished run on 2026/06/07 at 14:02:18.440     
------------------------------------------------------------------------
 total:
 * wall-time:     0 d,  0 h,  0 min,  0.096 sec
 *  cpu-time:     0 d,  0 h,  0 min,  1.334 sec
 * ratio c/w:    13.908 speedup
 SCF:
 * wall-time:     0 d,  0 h,  0 min,  0.022 sec
 *  cpu-time:     0 d,  0 h,  0 min,  0.305 sec
 * ratio c/w:    14.044 speedup
 analytical hessian:
 * wall-time:     0 d,  0 h,  0 min,  0.045 sec
 *  cpu-time:     0 d,  0 h,  0 min,  0.612 sec
 * ratio c/w:    13.494 speedup

