20
 energy: -32.783636482188 gnorm: 0.000243830373 xtb: 6.7.1 (edcfbbe)
O            3.86673124593012        0.37419067559506        0.00004679995034
O           -2.60688208754890        1.37442259828134        0.00252710781807
N           -1.58403583298601       -0.66502467593516        0.00056269875650
C           -0.22042082128792       -0.34330032396411        0.00001806782892
C            0.24757222884182        0.96592536192993        0.00057791699500
C            0.69790452737570       -1.39226760000204       -0.00067986192579
C            1.60734916043879        1.21377614141073        0.00056589132882
C            2.05393553223885       -1.14364517288303       -0.00067224476973
C            2.52062013240082        0.16725430800779        0.00000646560342
C           -2.66517208192150        0.16631532940837        0.00215364840421
C           -3.97451802251788       -0.59983587985639        0.00098282617775
H           -0.45365739524173        1.78274480329632        0.00113401193153
H            0.34482111458620       -2.41423414110968       -0.00107539401701
H           -1.77379411289134       -1.65773460366935       -0.00061547968164
H            1.96179646568323        2.23595520804708        0.00099880488555
H            2.76817454107702       -1.95117125341180       -0.00114682349447
H           -4.05160281410841       -1.20997430864439       -0.89678801987188
H           -4.79882520349235        0.10667926736309        0.02282774786055
H           -4.03474296298294       -1.24726264069142        0.87337389499063
H            4.04934638640642        1.32138690682766        0.00060194122925
