      -----------------------------------------------------------      
     |                   =====================                   |     
     |                           x T B                           |     
     |                   =====================                   |     
     |                         S. Grimme                         |     
     |          Mulliken Center for Theoretical Chemistry        |     
     |                    University of Bonn                     |     
      -----------------------------------------------------------      

   * xtb version 6.7.1 (edcfbbe) compiled by 'conda@c0858423619e' on 2025-09-04

   xtb is free software: you can redistribute it and/or modify it under
   the terms of the GNU Lesser General Public License as published by
   the Free Software Foundation, either version 3 of the License, or
   (at your option) any later version.
   
   xtb is distributed in the hope that it will be useful,
   but WITHOUT ANY WARRANTY; without even the implied warranty of
   MERCHANTABILITY or FITNESS FOR A PARTICULAR PURPOSE.  See the
   GNU Lesser General Public License for more details.
   
   Cite this work as:
   * C. Bannwarth, E. Caldeweyher, S. Ehlert, A. Hansen, P. Pracht,
     J. Seibert, S. Spicher, S. Grimme, WIREs Comput. Mol. Sci., 2020, 11,
     e01493. DOI: 10.1002/wcms.1493
   
   for GFN2-xTB:
   * C. Bannwarth, S. Ehlert and S. Grimme., J. Chem. Theory Comput., 2019,
     15, 1652-1671. DOI: 10.1021/acs.jctc.8b01176
   for GFN1-xTB:
   * S. Grimme, C. Bannwarth, P. Shushkov, J. Chem. Theory Comput., 2017,
     13, 1989-2009. DOI: 10.1021/acs.jctc.7b00118
   for GFN0-xTB:
   * P. Pracht, E. Caldeweyher, S. Ehlert, S. Grimme, ChemRxiv, 2019, preprint.
     DOI: 10.26434/chemrxiv.8326202.v1
   for GFN-FF:
   * S. Spicher and S. Grimme, Angew. Chem. Int. Ed., 2020, 59, 15665-15673.
     DOI: 10.1002/anie.202004239
   
   for ALPB and GBSA implicit solvation:
   * S. Ehlert, M. Stahn, S. Spicher, S. Grimme, J. Chem. Theory Comput.,
     2021, 17, 4250-4261. DOI: 10.1021/acs.jctc.1c00471
   
   for ddCOSMO and CPCM-X implicit solvation:
   * M. Stahn, S. Ehlert, S. Grimme, J. Phys. Chem. A,
     2023, XX, XXXX-XXXX. DOI: 10.1021/acs.jpca.3c04382
   
   for DFT-D4:
   * E. Caldeweyher, C. Bannwarth and S. Grimme, J. Chem. Phys., 2017,
     147, 034112. DOI: 10.1063/1.4993215
   * E. Caldeweyher, S. Ehlert, A. Hansen, H. Neugebauer, S. Spicher,
     C. Bannwarth and S. Grimme, J. Chem. Phys., 2019, 150, 154122.
     DOI: 10.1063/1.5090222
   * E. Caldeweyher, J.-M. Mewes, S. Ehlert and S. Grimme, Phys. Chem. Chem. Phys.
     2020, 22, 8499-8512. DOI: 10.1039/D0CP00502A
   
   for sTDA-xTB:
   * S. Grimme and C. Bannwarth, J. Chem. Phys., 2016, 145, 054103.
     DOI: 10.1063/1.4959605
   
   in the mass-spec context:
   * V. Asgeirsson, C. Bauer and S. Grimme, Chem. Sci., 2017, 8, 4879.
     DOI: 10.1039/c7sc00601b
   * J. Koopman and S. Grimme, ACS Omega 2019, 4, 12, 15120-15133.
     DOI: 10.1021/acsomega.9b02011
   
   for metadynamics refer to:
   * S. Grimme, J. Chem. Theory Comput., 2019, 155, 2847-2862
     DOI: 10.1021/acs.jctc.9b00143
   
   for SPH calculations refer to:
   * S. Spicher and S. Grimme, J. Chem. Theory Comput., 2021, 17, 1701-1714
     DOI: 10.1021/acs.jctc.0c01306
   
   for ONIOM refer to:
   * C. Plett, A. Katbashev, S. Ehlert, S. Grimme, M. Bursch,
     Phys. Chem. Chem. Phys., 2023, 25, 17860-17868. DOI: 10.1039/D3CP02178E
   
   for DIPRO refer to:
   * J. Kohn, N. Gildemeister, S. Grimme, D. Fazzi, A. Hansen,
     J. Chem. Phys., 2023, just accepted.
   
   for PTB refer to:
   * S. Grimme, M. Mueller, A. Hansen, J. Chem. Phys., 2023, 158, 124111.
     DOI: 10.1063/5.0137838
   
   with help from (in alphabetical order)
   P. Atkinson, C. Bannwarth, F. Bohle, G. Brandenburg, E. Caldeweyher
   M. Checinski, S. Dohm, S. Ehlert, S. Ehrlich, I. Gerasimov, C. Hölzer
   A. Katbashev, J. Kohn, J. Koopman, C. Lavigne, S. Lehtola, F. März, M. Müller,
   F. Musil, H. Neugebauer, J. Pisarek, C. Plett, P. Pracht, F. Pultar,
   J. Seibert, P. Shushkov, S. Spicher, M. Stahn, M. Steiner, T. Strunk,
   J. Stückrath, T. Rose, and J. Unsleber
   
 * started run on 2026/06/09 at 01:51:31.939     
   ID    Z sym.   atoms
    1    8 O      1, 16-18
    2    7 N      2
    3    6 C      3-8, 19-21
    4    1 H      9-15, 22-25

           -------------------------------------------------
          |                Calculation Setup                |
           -------------------------------------------------

          program call               : xtb paso1_bien.xyz --opt --alpb water --charge 1 --uhf 0
          hostname                   : fedora
          coordinate file            : paso1_bien.xyz
          omp threads                :                    16


           -------------------------------------------------
          |                 G F N 2 - x T B                 |
           -------------------------------------------------

        Reference                      10.1021/acs.jctc.8b01176
      * Hamiltonian:
        H0-scaling (s, p, d)           1.850000    2.230000    2.230000
        zeta-weighting                 0.500000
      * Dispersion:
        s8                             2.700000
        a1                             0.520000
        a2                             5.000000
        s9                             5.000000
      * Repulsion:
        kExp                           1.500000    1.000000
        rExp                           1.000000
      * Coulomb:
        alpha                          2.000000
        third order                    shell-resolved
        anisotropic                    true
        a3                             3.000000
        a5                             4.000000
        cn-shift                       1.200000
        cn-exp                         4.000000
        max-rad                        5.000000

      * Solvation model:               ALPB
        Solvent                        water
        Parameter file                 internal GFN2-xTB/ALPB
        Dielectric constant                8.0200E+01
        Reference state                gsolv [1 M gas/solution]
        Free energy shift                  1.0808E-03 Eh       6.7819E-01 kcal/mol
        Temperature                        2.9815E+02 K
        Density                            1.0000E+00 kg/L
        Solvent mass                       1.8000E+01 g/mol
        Interaction kernel             P16
        Born radius scaling (c1)           1.4744E+00
        Born radii integrator          GBOBC
        Born offset                        0.0000E+00 a0       0.0000E+00 AA
        H-bond correction              true
        Ion screening                  false
        Surface tension                    1.0000E-05 Eh       1.5569E+01 dyn/cm
        Grid points                               230 per atom

          ...................................................
          :                      SETUP                      :
          :.................................................:
          :  # basis functions                  67          :
          :  # atomic orbitals                  67          :
          :  # shells                           39          :
          :  # electrons                        75          :
          :  max. iterations                   250          :
          :  Hamiltonian                  GFN2-xTB          :
          :  restarted?                      false          :
          :  GBSA solvation                   true          :
          :  PC potential                    false          :
          :  electronic temp.          300.0000000     K    :
          :  accuracy                    1.0000000          :
          :  -> integral cutoff          0.2500000E+02      :
          :  -> integral neglect         0.1000000E-07      :
          :  -> SCF convergence          0.1000000E-05 Eh   :
          :  -> wf. convergence          0.1000000E-03 e    :
          :  Broyden damping             0.4000000          :
          :  net charge                          1          :
          :  unpaired electrons                  0          :
          ...................................................

 iter      E             dE          RMSdq      gap      omega  full diag
   1    -43.9855378 -0.439855E+02  0.498E+00    0.85       0.0  T
   2    -44.1100651 -0.124527E+00  0.287E+00    2.29       1.0  T
   3    -44.1128634 -0.279829E-02  0.127E+00    2.09       1.0  T
   4    -44.1155197 -0.265633E-02  0.450E-01    2.32       1.0  T
   5    -44.1177589 -0.223920E-02  0.113E-01    2.25       1.0  T
   6    -44.1177906 -0.316281E-04  0.608E-02    2.25       1.0  T
   7    -44.1178027 -0.121432E-04  0.197E-02    2.24       1.0  T
   8    -44.1178053 -0.254617E-05  0.938E-03    2.24       2.1  T
   9    -44.1178057 -0.436868E-06  0.445E-03    2.24       4.5  T
  10    -44.1178058 -0.825481E-07  0.204E-03    2.24       9.8  T
  11    -44.1178058 -0.250052E-07  0.107E-03    2.24      18.7  T
  12    -44.1178058 -0.654342E-08  0.351E-04    2.24      57.0  T
  13    -44.1178058 -0.484867E-09  0.148E-04    2.24     135.4  T

   *** convergence criteria satisfied after 13 iterations ***

         #    Occupation            Energy/Eh            Energy/eV
      -------------------------------------------------------------
         1        2.0000           -0.8111521             -22.0726
       ...           ...                  ...                  ...
        32        2.0000           -0.4779800             -13.0065
        33        2.0000           -0.4772614             -12.9869
        34        2.0000           -0.4435747             -12.0703
        35        2.0000           -0.4386470             -11.9362
        36        2.0000           -0.4223080             -11.4916
        37        2.0000           -0.3978354             -10.8257
        38        1.0000           -0.3377255              -9.1900 (HOMO)
        39                         -0.2554295              -6.9506 (LUMO)
        40                         -0.2490739              -6.7776
        41                         -0.2441142              -6.6427
        42                         -0.1246132              -3.3909
        43                         -0.0592757              -1.6130
       ...                                ...                  ...
        67                          0.6046507              16.4534
      -------------------------------------------------------------
                  HL-Gap            0.0822960 Eh            2.2394 eV
             Fermi-level           -0.3321790 Eh           -9.0390 eV

 SCC (total)                   0 d,  0 h,  0 min,  0.658 sec
 SCC setup                      ...        0 min,  0.004 sec (  0.572%)
 Dispersion                     ...        0 min,  0.004 sec (  0.549%)
 classical contributions        ...        0 min,  0.002 sec (  0.282%)
 integral evaluation            ...        0 min,  0.004 sec (  0.606%)
 iterations                     ...        0 min,  0.626 sec ( 95.140%)
 molecular gradient             ...        0 min,  0.018 sec (  2.791%)
 printout                       ...        0 min,  0.000 sec (  0.055%)

         :::::::::::::::::::::::::::::::::::::::::::::::::::::
         ::                     SUMMARY                     ::
         :::::::::::::::::::::::::::::::::::::::::::::::::::::
         :: total energy             -43.633266304139 Eh    ::
         :: total w/o Gsasa/hb       -43.616527559596 Eh    ::
         :: gradient norm              0.166572321134 Eh/a0 ::
         :: HOMO-LUMO gap              2.239388773077 eV    ::
         ::.................................................::
         :: SCC energy               -44.117880606087 Eh    ::
         :: -> isotropic ES            0.205378313103 Eh    ::
         :: -> anisotropic ES         -0.002579096814 Eh    ::
         :: -> anisotropic XC          0.008297858723 Eh    ::
         :: -> dispersion             -0.019797891641 Eh    ::
         :: -> Gsolv                  -0.113180755893 Eh    ::
         ::    -> Gelec               -0.096442011350 Eh    ::
         ::    -> Gsasa                0.003177622605 Eh    ::
         ::    -> Ghb                 -0.020997126847 Eh    ::
         ::    -> Gshift               0.001080759698 Eh    ::
         :: repulsion energy           0.484614301948 Eh    ::
         :: add. restraining           0.000000000000 Eh    ::
         :: total charge               1.000000000000 e     ::
         :::::::::::::::::::::::::::::::::::::::::::::::::::::

      ----------------------------------------------------------- 
     |                   =====================                   |
     |                        A N C O P T                        |
     |                   =====================                   |
     |               Approximate Normal Coordinate               |
     |                Rational Function Optimizer                |
      ----------------------------------------------------------- 
      ----------------------------------------------------------- 
     |                   =====================                   |
     |                        A N C O P T                        |
     |                   =====================                   |
     |               Approximate Normal Coordinate               |
     |                Rational Function Optimizer                |
      ----------------------------------------------------------- 

          ...................................................
          :                      SETUP                      :
          :.................................................:
          :   optimization level            normal          :
          :   max. optcycles                   200          :
          :   ANC micro-cycles                  20          :
          :   degrees of freedom                69          :
          :.................................................:
          :   RF solver                   davidson          :
          :   write xtbopt.log                true          :
          :   linear?                        false          :
          :   energy convergence         0.5000000E-05 Eh   :
          :   grad. convergence          0.1000000E-02 Eh/α :
          :   maxmium RF displ.          1.0000000          :
          :   Hlow (freq-cutoff)         0.1000000E-01      :
          :   Hmax (freq-cutoff)         5.0000000          :
          :   S6 in model hess.         20.0000000          :
          ...................................................

generating ANC from exact Hessian ...
Using Lindh-Hessian (1995)
 Shifting diagonal of input Hessian by    9.0108363229605380E-003
 Lowest  eigenvalues of input Hessian
    0.000000    0.000000    0.000000    0.000000    0.000000    0.000000
    0.010000    0.010382    0.011191    0.013432    0.015136    0.017287
    0.022010    0.023408    0.025732    0.027364    0.031821    0.036623
 Highest eigenvalues
    1.905312    1.953720    2.060000    2.080785    2.231698    2.354146


........................................................................
.............................. CYCLE    1 ..............................
........................................................................

 iter      E             dE          RMSdq      gap      omega  full diag
   1    -44.1178058 -0.441178E+02  0.502E-05    2.24       0.0  T
   2    -44.1178058 -0.169962E-10  0.314E-05    2.24     637.9  T
   3    -44.1178058 -0.597566E-11  0.205E-05    2.24     975.6  T
     SCC iter.                  ...        0 min,  0.193 sec
     gradient                   ...        0 min,  0.007 sec
 * total energy  :   -43.6332663 Eh     change       -0.7908341E-10 Eh
   gradient norm :     0.1665712 Eh/α   predicted     0.0000000E+00 (-100.00%)
   displ. norm   :     0.3308321 α      lambda       -0.3544105E-01
   maximum displ.:     0.1093103 α      in ANC's #38, #15, #29, ...

........................................................................
.............................. CYCLE    2 ..............................
........................................................................

 iter      E             dE          RMSdq      gap      omega  full diag
   1    -44.1575315 -0.441575E+02  0.292E-01    2.36       0.0  T
   2    -44.1577834 -0.251892E-03  0.176E-01    2.31       1.0  T
   3    -44.1577824  0.951044E-06  0.717E-02    2.33       1.0  T
   4    -44.1578131 -0.306287E-04  0.211E-02    2.31       1.0  T
   5    -44.1578176 -0.450179E-05  0.829E-03    2.32       2.4  T
   6    -44.1578176 -0.893173E-07  0.357E-03    2.32       5.6  T
   7    -44.1578177 -0.949360E-07  0.139E-03    2.32      14.4  T
   8    -44.1578177 -0.704972E-08  0.781E-04    2.32      25.6  T
   9    -44.1578177 -0.334794E-08  0.254E-04    2.32      78.6  T
     SCC iter.                  ...        0 min,  0.650 sec
     gradient                   ...        0 min,  0.005 sec
 * total energy  :   -43.6584857 Eh     change       -0.2521939E-01 Eh
   gradient norm :     0.0810573 Eh/α   predicted    -0.1967002E-01 ( -22.00%)
   displ. norm   :     0.3443710 α      lambda       -0.1461907E-01
   maximum displ.:     0.1173558 α      in ANC's #4, #19, #10, ...

........................................................................
.............................. CYCLE    3 ..............................
........................................................................

 iter      E             dE          RMSdq      gap      omega  full diag
   1    -44.1800029 -0.441800E+02  0.234E-01    2.38       0.0  T
   2    -44.1802651 -0.262195E-03  0.131E-01    2.33       1.0  T
   3    -44.1802742 -0.911670E-05  0.653E-02    2.35       1.0  T
   4    -44.1802868 -0.126384E-04  0.208E-02    2.33       1.0  T
   5    -44.1802915 -0.465764E-05  0.701E-03    2.34       2.9  T
   6    -44.1802916 -0.860845E-07  0.371E-03    2.34       5.4  T
   7    -44.1802916 -0.882220E-07  0.123E-03    2.34      16.3  T
   8    -44.1802917 -0.628314E-08  0.686E-04    2.34      29.2  T
   9    -44.1802917 -0.206617E-08  0.278E-04    2.34      72.1  T
     SCC iter.                  ...        0 min,  0.563 sec
     gradient                   ...        0 min,  0.009 sec
 * total energy  :   -43.6674870 Eh     change       -0.9001272E-02 Eh
   gradient norm :     0.0301731 Eh/α   predicted    -0.8176387E-02 (  -9.16%)
   displ. norm   :     0.2760983 α      lambda       -0.2922846E-02
   maximum displ.:     0.1594104 α      in ANC's #4, #10, #19, ...

........................................................................
.............................. CYCLE    4 ..............................
........................................................................

 iter      E             dE          RMSdq      gap      omega  full diag
   1    -44.1798693 -0.441799E+02  0.124E-01    2.32       0.0  T
   2    -44.1799041 -0.347992E-04  0.687E-02    2.31       1.0  T
   3    -44.1799040  0.149266E-06  0.250E-02    2.31       1.0  T
   4    -44.1799061 -0.212458E-05  0.726E-03    2.31       2.8  T
   5    -44.1799069 -0.790963E-06  0.235E-03    2.31       8.5  T
   6    -44.1799069 -0.102242E-07  0.122E-03    2.31      16.4  T
   7    -44.1799069 -0.789770E-08  0.334E-04    2.31      59.9  T
   8    -44.1799069 -0.403439E-09  0.156E-04    2.31     128.1  T
     SCC iter.                  ...        0 min,  0.781 sec
     gradient                   ...        0 min,  0.020 sec
 * total energy  :   -43.6695612 Eh     change       -0.2074206E-02 Eh
   gradient norm :     0.0197037 Eh/α   predicted    -0.1572911E-02 ( -24.17%)
   displ. norm   :     0.2971615 α      lambda       -0.1665773E-02
   maximum displ.:     0.1818573 α      in ANC's #4, #10, #2, ...

........................................................................
.............................. CYCLE    5 ..............................
........................................................................

 iter      E             dE          RMSdq      gap      omega  full diag
   1    -44.1792167 -0.441792E+02  0.115E-01    2.27       0.0  T
   2    -44.1792346 -0.178900E-04  0.654E-02    2.27       1.0  T
   3    -44.1792342  0.415520E-06  0.180E-02    2.27       1.1  T
   4    -44.1792359 -0.166137E-05  0.561E-03    2.27       3.6  T
   5    -44.1792363 -0.449831E-06  0.187E-03    2.27      10.7  T
   6    -44.1792363 -0.531224E-08  0.984E-04    2.27      20.3  T
   7    -44.1792363 -0.450106E-08  0.331E-04    2.27      60.4  T
     SCC iter.                  ...        0 min,  0.270 sec
     gradient                   ...        0 min,  0.016 sec
 * total energy  :   -43.6706624 Eh     change       -0.1101182E-02 Eh
   gradient norm :     0.0238726 Eh/α   predicted    -0.9064459E-03 ( -17.68%)
   displ. norm   :     0.2289832 α      lambda       -0.1029881E-02
   maximum displ.:     0.1419888 α      in ANC's #4, #2, #10, ...

........................................................................
.............................. CYCLE    6 ..............................
........................................................................

 iter      E             dE          RMSdq      gap      omega  full diag
   1    -44.1808928 -0.441809E+02  0.781E-02    2.22       0.0  T
   2    -44.1808992 -0.639497E-05  0.478E-02    2.25       1.0  T
   3    -44.1808957  0.349556E-05  0.185E-02    2.23       1.1  T
   4    -44.1809013 -0.568908E-05  0.273E-03    2.24       7.3  T
   5    -44.1809014 -0.215432E-07  0.127E-03    2.24      15.8  T
   6    -44.1809014 -0.298640E-08  0.681E-04    2.24      29.4  T
   7    -44.1809014 -0.261244E-08  0.204E-04    2.24      98.1  T
     SCC iter.                  ...        0 min,  0.459 sec
     gradient                   ...        0 min,  0.007 sec
 * total energy  :   -43.6714493 Eh     change       -0.7869864E-03 Eh
   gradient norm :     0.0207477 Eh/α   predicted    -0.5419435E-03 ( -31.14%)
   displ. norm   :     0.3388142 α      lambda       -0.1264346E-02
   maximum displ.:     0.2073378 α      in ANC's #4, #2, #5, ...

........................................................................
.............................. CYCLE    7 ..............................
........................................................................

 iter      E             dE          RMSdq      gap      omega  full diag
   1    -44.1833132 -0.441833E+02  0.109E-01    2.19       0.0  T
   2    -44.1833242 -0.109765E-04  0.662E-02    2.21       1.0  T
   3    -44.1833188  0.540667E-05  0.214E-02    2.20       1.0  T
   4    -44.1833267 -0.792575E-05  0.408E-03    2.21       4.9  T
   5    -44.1833268 -0.106010E-06  0.163E-03    2.21      12.3  T
   6    -44.1833268 -0.770505E-09  0.719E-04    2.21      27.8  T
   7    -44.1833268 -0.307403E-08  0.219E-04    2.21      91.3  T
     SCC iter.                  ...        0 min,  0.436 sec
     gradient                   ...        0 min,  0.017 sec
 * total energy  :   -43.6724458 Eh     change       -0.9964133E-03 Eh
   gradient norm :     0.0213776 Eh/α   predicted    -0.7047661E-03 ( -29.27%)
   displ. norm   :     0.4283445 α      lambda       -0.1660192E-02
   maximum displ.:     0.2602604 α      in ANC's #2, #4, #5, ...

........................................................................
.............................. CYCLE    8 ..............................
........................................................................

 iter      E             dE          RMSdq      gap      omega  full diag
   1    -44.1867613 -0.441868E+02  0.133E-01    2.16       0.0  T
   2    -44.1867888 -0.274728E-04  0.794E-02    2.19       1.0  T
   3    -44.1867830  0.579739E-05  0.294E-02    2.17       1.0  T
   4    -44.1867929 -0.985804E-05  0.761E-03    2.19       2.6  T
   5    -44.1867935 -0.641678E-06  0.236E-03    2.19       8.5  T
   6    -44.1867935 -0.307723E-08  0.907E-04    2.19      22.0  T
   7    -44.1867935 -0.589398E-08  0.311E-04    2.19      64.4  T
     SCC iter.                  ...        0 min,  0.339 sec
     gradient                   ...        0 min,  0.016 sec
 * total energy  :   -43.6736970 Eh     change       -0.1251297E-02 Eh
   gradient norm :     0.0151131 Eh/α   predicted    -0.9824147E-03 ( -21.49%)
   displ. norm   :     0.5304609 α      lambda       -0.1570874E-02
   maximum displ.:     0.3065960 α      in ANC's #4, #2, #5, ...

........................................................................
.............................. CYCLE    9 ..............................
........................................................................

 iter      E             dE          RMSdq      gap      omega  full diag
   1    -44.1838178 -0.441838E+02  0.164E-01    2.17       0.0  T
   2    -44.1838339 -0.160407E-04  0.959E-02    2.17       1.0  T
   3    -44.1838333  0.574983E-06  0.168E-02    2.18       1.2  T
   4    -44.1838360 -0.270727E-05  0.529E-03    2.17       3.8  T
   5    -44.1838363 -0.268295E-06  0.267E-03    2.17       7.5  T
   6    -44.1838363 -0.269543E-07  0.141E-03    2.17      14.1  T
   7    -44.1838363 -0.788902E-08  0.352E-04    2.17      56.8  T
   8    -44.1838363 -0.395460E-09  0.197E-04    2.17     101.7  T
     SCC iter.                  ...        0 min,  0.533 sec
     gradient                   ...        0 min,  0.013 sec
 * total energy  :   -43.6743817 Eh     change       -0.6846313E-03 Eh
   gradient norm :     0.0351375 Eh/α   predicted    -0.1006512E-02 (  47.02%)
   displ. norm   :     0.2852870 α      lambda       -0.2702734E-02
   maximum displ.:     0.1743480 α      in ANC's #2, #4, #5, ...

........................................................................
.............................. CYCLE   10 ..............................
........................................................................

 iter      E             dE          RMSdq      gap      omega  full diag
   1    -44.1919302 -0.441919E+02  0.952E-02    2.28       0.0  T
   2    -44.1919634 -0.332653E-04  0.612E-02    2.23       1.0  T
   3    -44.1919694 -0.600268E-05  0.326E-02    2.26       1.0  T
   4    -44.1919767 -0.723265E-05  0.660E-03    2.24       3.0  T
   5    -44.1919768 -0.133863E-06  0.354E-03    2.25       5.6  T
   6    -44.1919768 -0.308674E-07  0.189E-03    2.25      10.6  T
   7    -44.1919769 -0.265207E-07  0.449E-04    2.25      44.6  T
   8    -44.1919769 -0.110383E-08  0.233E-04    2.25      85.7  T
     SCC iter.                  ...        0 min,  0.686 sec
     gradient                   ...        0 min,  0.016 sec
 * total energy  :   -43.6758153 Eh     change       -0.1433588E-02 Eh
   gradient norm :     0.0180292 Eh/α   predicted    -0.1461372E-02 (   1.94%)
   displ. norm   :     0.4588864 α      lambda       -0.1311374E-02
   maximum displ.:     0.2661335 α      in ANC's #2, #4, #5, ...

........................................................................
.............................. CYCLE   11 ..............................
........................................................................

 iter      E             dE          RMSdq      gap      omega  full diag
   1    -44.1846659 -0.441847E+02  0.145E-01    2.20       0.0  T
   2    -44.1847076 -0.417320E-04  0.825E-02    2.24       1.0  T
   3    -44.1847017  0.594207E-05  0.372E-02    2.21       1.0  T
   4    -44.1847146 -0.128759E-04  0.807E-03    2.23       2.5  T
   5    -44.1847153 -0.689135E-06  0.252E-03    2.23       7.9  T
   6    -44.1847153 -0.115945E-07  0.141E-03    2.23      14.2  T
   7    -44.1847153 -0.836500E-08  0.537E-04    2.23      37.2  T
   8    -44.1847153 -0.204434E-08  0.220E-04    2.23      91.1  T
     SCC iter.                  ...        0 min,  0.565 sec
     gradient                   ...        0 min,  0.017 sec
 * total energy  :   -43.6766154 Eh     change       -0.8001604E-03 Eh
   gradient norm :     0.0253853 Eh/α   predicted    -0.7937878E-03 (  -0.80%)
   displ. norm   :     0.1864980 α      lambda       -0.8998731E-03
   maximum displ.:     0.0819122 α      in ANC's #4, #2, #6, ...

........................................................................
.............................. CYCLE   12 ..............................
........................................................................

 iter      E             dE          RMSdq      gap      omega  full diag
   1    -44.1852339 -0.441852E+02  0.645E-02    2.23       0.0  T
   2    -44.1852436 -0.964409E-05  0.371E-02    2.22       1.0  T
   3    -44.1852428  0.745424E-06  0.161E-02    2.23       1.2  T
   4    -44.1852449 -0.208571E-05  0.402E-03    2.22       5.0  T
   5    -44.1852451 -0.180014E-06  0.124E-03    2.22      16.1  T
   6    -44.1852451 -0.370080E-08  0.706E-04    2.22      28.3  T
   7    -44.1852451 -0.197460E-08  0.264E-04    2.22      75.6  T
     SCC iter.                  ...        0 min,  0.352 sec
     gradient                   ...        0 min,  0.016 sec
 * total energy  :   -43.6772778 Eh     change       -0.6623716E-03 Eh
   gradient norm :     0.0150725 Eh/α   predicted    -0.4655901E-03 ( -29.71%)
   displ. norm   :     0.2476561 α      lambda       -0.7573504E-03
   maximum displ.:     0.1105119 α      in ANC's #4, #6, #2, ...

........................................................................
.............................. CYCLE   13 ..............................
........................................................................

 iter      E             dE          RMSdq      gap      omega  full diag
   1    -44.1874609 -0.441875E+02  0.767E-02    2.22       0.0  T
   2    -44.1874660 -0.506161E-05  0.444E-02    2.22       1.0  T
   3    -44.1874647  0.133887E-05  0.132E-02    2.22       1.5  T
   4    -44.1874670 -0.237964E-05  0.292E-03    2.22       6.9  T
   5    -44.1874671 -0.607490E-07  0.132E-03    2.22      15.2  T
   6    -44.1874671 -0.266341E-08  0.675E-04    2.22      29.6  T
   7    -44.1874671 -0.270806E-08  0.197E-04    2.22     101.6  T
     SCC iter.                  ...        0 min,  0.746 sec
     gradient                   ...        0 min,  0.024 sec
 * total energy  :   -43.6778179 Eh     change       -0.5401094E-03 Eh
   gradient norm :     0.0112946 Eh/α   predicted    -0.4019079E-03 ( -25.59%)
   displ. norm   :     0.3474722 α      lambda       -0.6478914E-03
   maximum displ.:     0.1868396 α      in ANC's #4, #2, #6, ...

........................................................................
.............................. CYCLE   14 ..............................
........................................................................

 iter      E             dE          RMSdq      gap      omega  full diag
   1    -44.1863348 -0.441863E+02  0.101E-01    2.24       0.0  T
   2    -44.1863464 -0.116122E-04  0.587E-02    2.22       1.0  T
   3    -44.1863437  0.265787E-05  0.197E-02    2.23       1.0  T
   4    -44.1863483 -0.454674E-05  0.412E-03    2.22       4.9  T
   5    -44.1863485 -0.202523E-06  0.172E-03    2.23      11.7  T
   6    -44.1863485 -0.678978E-08  0.890E-04    2.23      22.5  T
   7    -44.1863485 -0.191903E-08  0.219E-04    2.23      91.5  T
     SCC iter.                  ...        0 min,  0.509 sec
     gradient                   ...        0 min,  0.022 sec
 * total energy  :   -43.6782334 Eh     change       -0.4154913E-03 Eh
   gradient norm :     0.0127880 Eh/α   predicted    -0.3630711E-03 ( -12.62%)
   displ. norm   :     0.3145230 α      lambda       -0.9556546E-03
   maximum displ.:     0.1446219 α      in ANC's #4, #6, #30, ...

........................................................................
.............................. CYCLE   15 ..............................
........................................................................

 iter      E             dE          RMSdq      gap      omega  full diag
   1    -44.1907497 -0.441907E+02  0.113E-01    2.18       0.0  T
   2    -44.1907601 -0.104311E-04  0.668E-02    2.20       1.0  T
   3    -44.1907557  0.435787E-05  0.238E-02    2.19       1.0  T
   4    -44.1907645 -0.882146E-05  0.592E-03    2.20       3.4  T
   5    -44.1907647 -0.107588E-06  0.320E-03    2.20       6.2  T
   6    -44.1907647 -0.286657E-07  0.150E-03    2.20      13.4  T
   7    -44.1907647 -0.179499E-07  0.434E-04    2.20      46.1  T
   8    -44.1907647 -0.657018E-09  0.242E-04    2.20      82.7  T
     SCC iter.                  ...        0 min,  0.291 sec
     gradient                   ...        0 min,  0.016 sec
 * total energy  :   -43.6783351 Eh     change       -0.1016849E-03 Eh
   gradient norm :     0.0249180 Eh/α   predicted    -0.5250976E-03 ( 416.40%)
   displ. norm   :     0.3640696 α      lambda       -0.1275958E-02
   maximum displ.:     0.2179526 α      in ANC's #4, #6, #3, ...

........................................................................
.............................. CYCLE   16 ..............................
........................................................................

 iter      E             dE          RMSdq      gap      omega  full diag
   1    -44.1878225 -0.441878E+02  0.123E-01    2.23       0.0  T
   2    -44.1878368 -0.142847E-04  0.753E-02    2.20       1.0  T
   3    -44.1878273  0.951484E-05  0.298E-02    2.22       1.0  T
   4    -44.1878425 -0.152256E-04  0.445E-03    2.21       4.5  T
   5    -44.1878426 -0.466426E-07  0.231E-03    2.21       8.7  T
   6    -44.1878426 -0.778563E-08  0.100E-03    2.21      20.0  T
   7    -44.1878426 -0.834206E-08  0.313E-04    2.21      63.9  T
   8    -44.1878426 -0.539629E-09  0.161E-04    2.21     124.5  T
     SCC iter.                  ...        0 min,  1.027 sec
     gradient                   ...        0 min,  0.009 sec
 * total energy  :   -43.6786294 Eh     change       -0.2943225E-03 Eh
   gradient norm :     0.0239246 Eh/α   predicted    -0.7225470E-03 ( 145.49%)
   displ. norm   :     0.2498689 α      lambda       -0.9893338E-03
   maximum displ.:     0.1212519 α      in ANC's #6, #4, #2, ...

........................................................................
.............................. CYCLE   17 ..............................
........................................................................

 iter      E             dE          RMSdq      gap      omega  full diag
   1    -44.1947278 -0.441947E+02  0.112E-01    2.33       0.0  T
   2    -44.1947923 -0.645586E-04  0.643E-02    2.27       1.0  T
   3    -44.1948017 -0.941547E-05  0.368E-02    2.30       1.0  T
   4    -44.1948075 -0.578150E-05  0.711E-03    2.29       2.8  T
   5    -44.1948078 -0.300988E-06  0.263E-03    2.29       7.6  T
   6    -44.1948078 -0.116648E-07  0.152E-03    2.29      13.1  T
   7    -44.1948078 -0.114007E-07  0.548E-04    2.29      36.5  T
   8    -44.1948078 -0.118484E-08  0.216E-04    2.29      92.5  T
     SCC iter.                  ...        0 min,  0.454 sec
     gradient                   ...        0 min,  0.019 sec
 * total energy  :   -43.6787581 Eh     change       -0.1286944E-03 Eh
   gradient norm :     0.0218827 Eh/α   predicted    -0.5255534E-03 ( 308.37%)
   displ. norm   :     0.1604562 α      lambda       -0.8548917E-03
   maximum displ.:     0.1084373 α      in ANC's #4, #3, #7, ...

........................................................................
.............................. CYCLE   18 ..............................
........................................................................

 iter      E             dE          RMSdq      gap      omega  full diag
   1    -44.1878241 -0.441878E+02  0.111E-01    2.18       0.0  T
   2    -44.1879525 -0.128463E-03  0.637E-02    2.26       1.0  T
   3    -44.1879891 -0.366189E-04  0.332E-02    2.23       1.0  T
   4    -44.1879913 -0.211956E-05  0.117E-02    2.24       1.7  T
   5    -44.1879916 -0.373726E-06  0.196E-03    2.24      10.2  T
   6    -44.1879916 -0.114728E-07  0.111E-03    2.24      18.1  T
   7    -44.1879917 -0.447066E-08  0.487E-04    2.24      41.0  T
   8    -44.1879917 -0.126783E-08  0.141E-04    2.24     141.5  T
     SCC iter.                  ...        0 min,  0.594 sec
     gradient                   ...        0 min,  0.016 sec
 * total energy  :   -43.6790431 Eh     change       -0.2850219E-03 Eh
   gradient norm :     0.0102945 Eh/α   predicted    -0.4384553E-03 (  53.83%)
   displ. norm   :     0.2081984 α      lambda       -0.3920232E-03
   maximum displ.:     0.1251775 α      in ANC's #4, #6, #3, ...

........................................................................
.............................. CYCLE   19 ..............................
........................................................................

 iter      E             dE          RMSdq      gap      omega  full diag
   1    -44.1890109 -0.441890E+02  0.665E-02    2.27       0.0  T
   2    -44.1890205 -0.959203E-05  0.409E-02    2.24       1.0  T
   3    -44.1890193  0.116961E-05  0.194E-02    2.26       1.0  T
   4    -44.1890234 -0.403477E-05  0.280E-03    2.25       7.2  T
   5    -44.1890234 -0.422090E-07  0.118E-03    2.25      17.0  T
   6    -44.1890234 -0.703558E-09  0.567E-04    2.25      35.3  T
   7    -44.1890234 -0.223122E-08  0.181E-04    2.25     110.6  T
     SCC iter.                  ...        0 min,  0.433 sec
     gradient                   ...        0 min,  0.027 sec
 * total energy  :   -43.6793259 Eh     change       -0.2827787E-03 Eh
   gradient norm :     0.0080276 Eh/α   predicted    -0.2045142E-03 ( -27.68%)
   displ. norm   :     0.3390139 α      lambda       -0.3794023E-03
   maximum displ.:     0.2468409 α      in ANC's #4, #1, #38, ...

........................................................................
.............................. CYCLE   20 ..............................
........................................................................

 iter      E             dE          RMSdq      gap      omega  full diag
   1    -44.1886452 -0.441886E+02  0.991E-02    2.29       0.0  T
   2    -44.1886583 -0.131440E-04  0.600E-02    2.26       1.0  T
   3    -44.1886535  0.481853E-05  0.232E-02    2.28       1.0  T
   4    -44.1886615 -0.804334E-05  0.357E-03    2.26       5.6  T
   5    -44.1886616 -0.955113E-07  0.152E-03    2.27      13.2  T
   6    -44.1886616 -0.107804E-08  0.651E-04    2.27      30.7  T
   7    -44.1886616 -0.324796E-08  0.198E-04    2.27     101.1  T
     SCC iter.                  ...        0 min,  0.830 sec
     gradient                   ...        0 min,  0.014 sec
 * total energy  :   -43.6795902 Eh     change       -0.2643028E-03 Eh
   gradient norm :     0.0116290 Eh/α   predicted    -0.2115144E-03 ( -19.97%)
   displ. norm   :     0.3383865 α      lambda       -0.4337470E-03
   maximum displ.:     0.2322391 α      in ANC's #4, #2, #1, ...
 * RMSD in coord.:     0.8912114 α      energy gain  -0.4632390E-01 Eh

generating ANC from exact Hessian ...
Using Lindh-Hessian (1995)
 Shifting diagonal of input Hessian by    9.1042619073178552E-003
 Lowest  eigenvalues of input Hessian
    0.000000    0.000000    0.000000    0.000000    0.000000    0.000000
    0.010000    0.010314    0.011231    0.012906    0.015699    0.017805
    0.018320    0.024572    0.026764    0.029387    0.032309    0.036372
 Highest eigenvalues
    1.811366    1.916191    2.031407    2.041016    2.133854    2.304547


........................................................................
.............................. CYCLE   21 ..............................
........................................................................

 iter      E             dE          RMSdq      gap      omega  full diag
   1    -44.1902554 -0.441903E+02  0.895E-02    2.30       0.0  T
   2    -44.1902606 -0.524038E-05  0.538E-02    2.29       1.0  T
   3    -44.1902569  0.377712E-05  0.165E-02    2.30       1.2  T
   4    -44.1902622 -0.536625E-05  0.249E-03    2.29       8.0  T
   5    -44.1902623 -0.244706E-07  0.132E-03    2.29      15.1  T
   6    -44.1902623 -0.284662E-08  0.650E-04    2.29      30.8  T
   7    -44.1902623 -0.209493E-08  0.212E-04    2.29      94.5  T
     SCC iter.                  ...        0 min,  0.575 sec
     gradient                   ...        0 min,  0.019 sec
 * total energy  :   -43.6799253 Eh     change       -0.3350547E-03 Eh
   gradient norm :     0.0095314 Eh/α   predicted     0.0000000E+00 (-100.00%)
   displ. norm   :     0.0954646 α      lambda       -0.2759528E-03
   maximum displ.:     0.0672155 α      in ANC's #4, #3, #2, ...

........................................................................
.............................. CYCLE   22 ..............................
........................................................................

 iter      E             dE          RMSdq      gap      omega  full diag
   1    -44.1910355 -0.441910E+02  0.381E-02    2.28       0.0  T
   2    -44.1910369 -0.141120E-05  0.217E-02    2.29       1.0  T
   3    -44.1910364  0.505977E-06  0.805E-03    2.28       2.5  T
   4    -44.1910373 -0.886065E-06  0.154E-03    2.29      12.9  T
   5    -44.1910373 -0.121531E-07  0.746E-04    2.29      26.8  T
   6    -44.1910373 -0.283286E-09  0.263E-04    2.29      76.1  T
     SCC iter.                  ...        0 min,  0.405 sec
     gradient                   ...        0 min,  0.009 sec
 * total energy  :   -43.6801554 Eh     change       -0.2301485E-03 Eh
   gradient norm :     0.0040571 Eh/α   predicted    -0.1397885E-03 ( -39.26%)
   displ. norm   :     0.3397581 α      lambda       -0.6008184E-03
   maximum displ.:     0.2435706 α      in ANC's #4, #3, #2, ...

........................................................................
.............................. CYCLE   23 ..............................
........................................................................

 iter      E             dE          RMSdq      gap      omega  full diag
   1    -44.1911065 -0.441911E+02  0.124E-01    2.24       0.0  T
   2    -44.1911286 -0.220423E-04  0.700E-02    2.27       1.0  T
   3    -44.1911223  0.625155E-05  0.336E-02    2.24       1.0  T
   4    -44.1911359 -0.135553E-04  0.453E-03    2.26       4.4  T
   5    -44.1911360 -0.105700E-06  0.212E-03    2.26       9.4  T
   6    -44.1911360 -0.122890E-08  0.909E-04    2.26      22.0  T
   7    -44.1911360 -0.663160E-08  0.243E-04    2.26      82.4  T
     SCC iter.                  ...        0 min,  0.784 sec
     gradient                   ...        0 min,  0.019 sec
 * total energy  :   -43.6806191 Eh     change       -0.4637265E-03 Eh
   gradient norm :     0.0091673 Eh/α   predicted    -0.3351108E-03 ( -27.74%)
   displ. norm   :     0.4609396 α      lambda       -0.6319213E-03
   maximum displ.:     0.3121705 α      in ANC's #4, #2, #3, ...

........................................................................
.............................. CYCLE   24 ..............................
........................................................................

 iter      E             dE          RMSdq      gap      omega  full diag
   1    -44.1885644 -0.441886E+02  0.163E-01    2.17       0.0  T
   2    -44.1886187 -0.542397E-04  0.924E-02    2.22       1.0  T
   3    -44.1886158  0.290294E-05  0.526E-02    2.19       1.0  T
   4    -44.1886432 -0.274466E-04  0.562E-03    2.21       3.6  T
   5    -44.1886434 -0.149692E-06  0.262E-03    2.21       7.6  T
   6    -44.1886434 -0.442591E-08  0.134E-03    2.21      14.9  T
   7    -44.1886434 -0.121057E-07  0.341E-04    2.21      58.7  T
   8    -44.1886434 -0.597169E-09  0.150E-04    2.21     133.8  T
     SCC iter.                  ...        0 min,  0.548 sec
     gradient                   ...        0 min,  0.058 sec
 * total energy  :   -43.6811148 Eh     change       -0.4956808E-03 Eh
   gradient norm :     0.0181305 Eh/α   predicted    -0.3830941E-03 ( -22.71%)
   displ. norm   :     0.5030571 α      lambda       -0.8068761E-03
   maximum displ.:     0.3095776 α      in ANC's #4, #2, #1, ...

........................................................................
.............................. CYCLE   25 ..............................
........................................................................

 iter      E             dE          RMSdq      gap      omega  full diag
   1    -44.1859502 -0.441860E+02  0.146E-01    2.13       0.0  T
   2    -44.1859872 -0.369731E-04  0.843E-02    2.17       1.0  T
   3    -44.1859825  0.471306E-05  0.500E-02    2.14       1.0  T
   4    -44.1860092 -0.267131E-04  0.460E-03    2.16       4.3  T
   5    -44.1860093 -0.828856E-07  0.252E-03    2.15       8.0  T
   6    -44.1860093 -0.124362E-07  0.135E-03    2.15      14.8  T
   7    -44.1860093 -0.109007E-07  0.356E-04    2.15      56.1  T
   8    -44.1860093 -0.431932E-09  0.195E-04    2.15     102.5  T
     SCC iter.                  ...        0 min,  0.538 sec
     gradient                   ...        0 min,  0.012 sec
 * total energy  :   -43.6817010 Eh     change       -0.5861349E-03 Eh
   gradient norm :     0.0210993 Eh/α   predicted    -0.5055524E-03 ( -13.75%)
   displ. norm   :     0.3658072 α      lambda       -0.1276576E-02
   maximum displ.:     0.2051886 α      in ANC's #2, #1, #4, ...

........................................................................
.............................. CYCLE   26 ..............................
........................................................................

 iter      E             dE          RMSdq      gap      omega  full diag
   1    -44.1897293 -0.441897E+02  0.833E-02    2.19       0.0  T
   2    -44.1897562 -0.269212E-04  0.528E-02    2.16       1.0  T
   3    -44.1897579 -0.167134E-05  0.279E-02    2.17       1.0  T
   4    -44.1897633 -0.547282E-05  0.712E-03    2.16       2.8  T
   5    -44.1897638 -0.431375E-06  0.218E-03    2.16       9.2  T
   6    -44.1897638 -0.908452E-08  0.126E-03    2.16      15.9  T
   7    -44.1897638 -0.673531E-08  0.465E-04    2.16      43.0  T
   8    -44.1897638 -0.121474E-08  0.201E-04    2.16      99.7  T
     SCC iter.                  ...        0 min,  0.459 sec
     gradient                   ...        0 min,  0.011 sec
 * total energy  :   -43.6825216 Eh     change       -0.8206031E-03 Eh
   gradient norm :     0.0107127 Eh/α   predicted    -0.7236974E-03 ( -11.81%)
   displ. norm   :     0.3585370 α      lambda       -0.6114814E-03
   maximum displ.:     0.2215680 α      in ANC's #2, #1, #4, ...

........................................................................
.............................. CYCLE   27 ..............................
........................................................................

 iter      E             dE          RMSdq      gap      omega  full diag
   1    -44.1899507 -0.441900E+02  0.787E-02    2.11       0.0  T
   2    -44.1899608 -0.101270E-04  0.448E-02    2.13       1.0  T
   3    -44.1899581  0.269624E-05  0.267E-02    2.11       1.0  T
   4    -44.1899660 -0.793329E-05  0.352E-03    2.12       5.7  T
   5    -44.1899661 -0.556211E-07  0.198E-03    2.12      10.1  T
   6    -44.1899661 -0.106085E-07  0.112E-03    2.12      17.8  T
   7    -44.1899661 -0.743059E-08  0.324E-04    2.12      61.8  T
   8    -44.1899661 -0.476753E-09  0.152E-04    2.12     131.7  T
     SCC iter.                  ...        0 min,  0.863 sec
     gradient                   ...        0 min,  0.010 sec
 * total energy  :   -43.6829514 Eh     change       -0.4298298E-03 Eh
   gradient norm :     0.0064447 Eh/α   predicted    -0.3450437E-03 ( -19.73%)
   displ. norm   :     0.2726752 α      lambda       -0.4478610E-03
   maximum displ.:     0.1804000 α      in ANC's #2, #1, #5, ...

........................................................................
.............................. CYCLE   28 ..............................
........................................................................

 iter      E             dE          RMSdq      gap      omega  full diag
   1    -44.1922826 -0.441923E+02  0.520E-02    2.13       0.0  T
   2    -44.1922887 -0.613840E-05  0.325E-02    2.12       1.0  T
   3    -44.1922876  0.111012E-05  0.171E-02    2.13       1.2  T
   4    -44.1922910 -0.338483E-05  0.329E-03    2.12       6.1  T
   5    -44.1922911 -0.686918E-07  0.134E-03    2.12      14.9  T
   6    -44.1922911 -0.360059E-08  0.736E-04    2.12      27.2  T
   7    -44.1922911 -0.367672E-08  0.265E-04    2.12      75.5  T
     SCC iter.                  ...        0 min,  0.628 sec
     gradient                   ...        0 min,  0.009 sec
 * total energy  :   -43.6832619 Eh     change       -0.3104836E-03 Eh
   gradient norm :     0.0091103 Eh/α   predicted    -0.2405859E-03 ( -22.51%)
   displ. norm   :     0.3473633 α      lambda       -0.3842356E-03
   maximum displ.:     0.2312005 α      in ANC's #2, #1, #4, ...

........................................................................
.............................. CYCLE   29 ..............................
........................................................................

 iter      E             dE          RMSdq      gap      omega  full diag
   1    -44.1906855 -0.441907E+02  0.618E-02    2.10       0.0  T
   2    -44.1906900 -0.453411E-05  0.360E-02    2.11       1.0  T
   3    -44.1906877  0.233122E-05  0.164E-02    2.10       1.2  T
   4    -44.1906913 -0.359595E-05  0.294E-03    2.11       6.8  T
   5    -44.1906914 -0.884956E-07  0.138E-03    2.11      14.5  T
   6    -44.1906914 -0.644106E-08  0.785E-04    2.11      25.5  T
   7    -44.1906914 -0.298684E-08  0.303E-04    2.11      65.9  T
     SCC iter.                  ...        0 min,  0.752 sec
     gradient                   ...        0 min,  0.018 sec
 * total energy  :   -43.6835751 Eh     change       -0.3132562E-03 Eh
   gradient norm :     0.0080736 Eh/α   predicted    -0.2153188E-03 ( -31.26%)
   displ. norm   :     0.3460608 α      lambda       -0.4265486E-03
   maximum displ.:     0.2446786 α      in ANC's #2, #1, #5, ...

........................................................................
.............................. CYCLE   30 ..............................
........................................................................

 iter      E             dE          RMSdq      gap      omega  full diag
   1    -44.1910619 -0.441911E+02  0.654E-02    2.13       0.0  T
   2    -44.1910651 -0.320782E-05  0.393E-02    2.12       1.0  T
   3    -44.1910613  0.381533E-05  0.164E-02    2.13       1.2  T
   4    -44.1910665 -0.520225E-05  0.229E-03    2.12       8.7  T
   5    -44.1910665 -0.271958E-07  0.108E-03    2.12      18.6  T
   6    -44.1910665 -0.150585E-08  0.522E-04    2.12      38.3  T
   7    -44.1910665 -0.199496E-08  0.182E-04    2.12     110.1  T
     SCC iter.                  ...        0 min,  0.260 sec
     gradient                   ...        0 min,  0.009 sec
 * total energy  :   -43.6839177 Eh     change       -0.3425659E-03 Eh
   gradient norm :     0.0067221 Eh/α   predicted    -0.2388230E-03 ( -30.28%)
   displ. norm   :     0.3746698 α      lambda       -0.3837356E-03
   maximum displ.:     0.2658915 α      in ANC's #2, #1, #4, ...

........................................................................
.............................. CYCLE   31 ..............................
........................................................................

 iter      E             dE          RMSdq      gap      omega  full diag
   1    -44.1904987 -0.441905E+02  0.675E-02    2.15       0.0  T
   2    -44.1905016 -0.290788E-05  0.406E-02    2.14       1.0  T
   3    -44.1904976  0.400452E-05  0.166E-02    2.15       1.2  T
   4    -44.1905030 -0.540531E-05  0.218E-03    2.14       9.2  T
   5    -44.1905030 -0.203110E-07  0.116E-03    2.14      17.3  T
   6    -44.1905030 -0.133388E-08  0.490E-04    2.14      40.8  T
   7    -44.1905030 -0.194238E-08  0.161E-04    2.14     124.5  T
     SCC iter.                  ...        0 min,  0.668 sec
     gradient                   ...        0 min,  0.024 sec
 * total energy  :   -43.6842378 Eh     change       -0.3201409E-03 Eh
   gradient norm :     0.0062880 Eh/α   predicted    -0.2188051E-03 ( -31.65%)
   displ. norm   :     0.4082770 α      lambda       -0.3897286E-03
   maximum displ.:     0.2892488 α      in ANC's #2, #1, #10, ...

........................................................................
.............................. CYCLE   32 ..............................
........................................................................

 iter      E             dE          RMSdq      gap      omega  full diag
   1    -44.1905391 -0.441905E+02  0.764E-02    2.18       0.0  T
   2    -44.1905435 -0.441088E-05  0.458E-02    2.16       1.0  T
   3    -44.1905384  0.514443E-05  0.198E-02    2.17       1.0  T
   4    -44.1905456 -0.724965E-05  0.244E-03    2.16       8.2  T
   5    -44.1905456 -0.188746E-07  0.129E-03    2.16      15.5  T
   6    -44.1905456 -0.670319E-09  0.614E-04    2.16      32.6  T
   7    -44.1905456 -0.351875E-08  0.165E-04    2.16     121.4  T
     SCC iter.                  ...        0 min,  0.709 sec
     gradient                   ...        0 min,  0.013 sec
 * total energy  :   -43.6845700 Eh     change       -0.3322108E-03 Eh
   gradient norm :     0.0067572 Eh/α   predicted    -0.2273493E-03 ( -31.56%)
   displ. norm   :     0.4961314 α      lambda       -0.4363450E-03
   maximum displ.:     0.3446983 α      in ANC's #2, #1, #10, ...

........................................................................
.............................. CYCLE   33 ..............................
........................................................................

 iter      E             dE          RMSdq      gap      omega  full diag
   1    -44.1900629 -0.441901E+02  0.902E-02    2.20       0.0  T
   2    -44.1900682 -0.534676E-05  0.538E-02    2.18       1.0  T
   3    -44.1900625  0.574119E-05  0.198E-02    2.20       1.0  T
   4    -44.1900703 -0.779951E-05  0.306E-03    2.19       6.5  T
   5    -44.1900703 -0.395601E-07  0.155E-03    2.19      12.9  T
   6    -44.1900703 -0.119850E-08  0.740E-04    2.19      27.0  T
   7    -44.1900703 -0.492317E-08  0.202E-04    2.19      98.8  T
     SCC iter.                  ...        0 min,  0.533 sec
     gradient                   ...        0 min,  0.006 sec
 * total energy  :   -43.6849366 Eh     change       -0.3665206E-03 Eh
   gradient norm :     0.0075504 Eh/α   predicted    -0.2718757E-03 ( -25.82%)
   displ. norm   :     0.5411255 α      lambda       -0.4395820E-03
   maximum displ.:     0.3785903 α      in ANC's #1, #2, #10, ...

........................................................................
.............................. CYCLE   34 ..............................
........................................................................

 iter      E             dE          RMSdq      gap      omega  full diag
   1    -44.1899569 -0.441900E+02  0.998E-02    2.22       0.0  T
   2    -44.1899606 -0.371393E-05  0.591E-02    2.21       1.0  T
   3    -44.1899584  0.219302E-05  0.124E-02    2.21       1.6  T
   4    -44.1899617 -0.322701E-05  0.340E-03    2.21       5.9  T
   5    -44.1899617 -0.736091E-07  0.164E-03    2.21      12.2  T
   6    -44.1899617 -0.182930E-08  0.659E-04    2.21      30.3  T
   7    -44.1899617 -0.368822E-08  0.208E-04    2.21      96.1  T
     SCC iter.                  ...        0 min,  0.607 sec
     gradient                   ...        0 min,  0.014 sec
 * total energy  :   -43.6852973 Eh     change       -0.3607137E-03 Eh
   gradient norm :     0.0081285 Eh/α   predicted    -0.2841556E-03 ( -21.22%)
   displ. norm   :     0.5086859 α      lambda       -0.4070115E-03
   maximum displ.:     0.3724016 α      in ANC's #1, #2, #10, ...

........................................................................
.............................. CYCLE   35 ..............................
........................................................................

 iter      E             dE          RMSdq      gap      omega  full diag
   1    -44.1909413 -0.441909E+02  0.954E-02    2.22       0.0  T
   2    -44.1909434 -0.209264E-05  0.563E-02    2.22       1.0  T
   3    -44.1909436 -0.185075E-06  0.631E-03    2.22       3.2  T
   4    -44.1909440 -0.404880E-06  0.317E-03    2.22       6.3  T
   5    -44.1909441 -0.601099E-07  0.147E-03    2.22      13.6  T
   6    -44.1909441 -0.346790E-08  0.543E-04    2.22      36.8  T
   7    -44.1909441 -0.143307E-08  0.170E-04    2.22     117.7  T
     SCC iter.                  ...        0 min,  0.549 sec
     gradient                   ...        0 min,  0.009 sec
 * total energy  :   -43.6856363 Eh     change       -0.3390382E-03 Eh
   gradient norm :     0.0077396 Eh/α   predicted    -0.2561678E-03 ( -24.44%)
   displ. norm   :     0.4989166 α      lambda       -0.3945840E-03
   maximum displ.:     0.3852843 α      in ANC's #1, #2, #10, ...

........................................................................
.............................. CYCLE   36 ..............................
........................................................................

 iter      E             dE          RMSdq      gap      omega  full diag
   1    -44.1921770 -0.441922E+02  0.990E-02    2.22       0.0  T
   2    -44.1921800 -0.307749E-05  0.583E-02    2.22       1.0  T
   3    -44.1921781  0.197867E-05  0.124E-02    2.21       1.6  T
   4    -44.1921810 -0.294482E-05  0.298E-03    2.22       6.7  T
   5    -44.1921811 -0.445913E-07  0.158E-03    2.22      12.7  T
   6    -44.1921811 -0.324032E-08  0.626E-04    2.22      31.9  T
   7    -44.1921811 -0.241401E-08  0.179E-04    2.22     111.8  T
     SCC iter.                  ...        0 min,  0.410 sec
     gradient                   ...        0 min,  0.018 sec
 * total energy  :   -43.6859678 Eh     change       -0.3314767E-03 Eh
   gradient norm :     0.0065116 Eh/α   predicted    -0.2464053E-03 ( -25.66%)
   displ. norm   :     0.4742765 α      lambda       -0.3887537E-03
   maximum displ.:     0.3886803 α      in ANC's #1, #2, #10, ...

........................................................................
.............................. CYCLE   37 ..............................
........................................................................

 iter      E             dE          RMSdq      gap      omega  full diag
   1    -44.1939660 -0.441940E+02  0.961E-02    2.21       0.0  T
   2    -44.1939700 -0.395127E-05  0.565E-02    2.22       1.0  T
   3    -44.1939677  0.232294E-05  0.137E-02    2.21       1.5  T
   4    -44.1939711 -0.342376E-05  0.306E-03    2.22       6.5  T
   5    -44.1939711 -0.530874E-07  0.162E-03    2.22      12.3  T
   6    -44.1939711 -0.377913E-08  0.687E-04    2.22      29.1  T
   7    -44.1939711 -0.304008E-08  0.187E-04    2.22     107.0  T
     SCC iter.                  ...        0 min,  0.652 sec
     gradient                   ...        0 min,  0.011 sec
 * total energy  :   -43.6862947 Eh     change       -0.3269027E-03 Eh
   gradient norm :     0.0057369 Eh/α   predicted    -0.2381012E-03 ( -27.16%)
   displ. norm   :     0.4514085 α      lambda       -0.3640673E-03
   maximum displ.:     0.3858002 α      in ANC's #1, #2, #10, ...

........................................................................
.............................. CYCLE   38 ..............................
........................................................................

 iter      E             dE          RMSdq      gap      omega  full diag
   1    -44.1944227 -0.441944E+02  0.103E-01    2.20       0.0  T
   2    -44.1944305 -0.785862E-05  0.612E-02    2.22       1.0  T
   3    -44.1944240  0.654253E-05  0.215E-02    2.20       1.0  T
   4    -44.1944329 -0.890517E-05  0.340E-03    2.21       5.9  T
   5    -44.1944330 -0.804400E-07  0.167E-03    2.21      11.9  T
   6    -44.1944330 -0.217822E-08  0.803E-04    2.21      24.9  T
   7    -44.1944330 -0.466083E-08  0.183E-04    2.21     109.0  T
     SCC iter.                  ...        0 min,  0.421 sec
     gradient                   ...        0 min,  0.009 sec
 * total energy  :   -43.6865983 Eh     change       -0.3036203E-03 Eh
   gradient norm :     0.0054017 Eh/α   predicted    -0.2191275E-03 ( -27.83%)
   displ. norm   :     0.4236597 α      lambda       -0.3849562E-03
   maximum displ.:     0.3701614 α      in ANC's #1, #10, #2, ...

........................................................................
.............................. CYCLE   39 ..............................
........................................................................

 iter      E             dE          RMSdq      gap      omega  full diag
   1    -44.1960389 -0.441960E+02  0.975E-02    2.20       0.0  T
   2    -44.1960434 -0.451219E-05  0.571E-02    2.21       1.0  T
   3    -44.1960433  0.115703E-06  0.858E-03    2.20       2.3  T
   4    -44.1960441 -0.829244E-06  0.348E-03    2.21       5.7  T
   5    -44.1960442 -0.148458E-06  0.172E-03    2.21      11.6  T
   6    -44.1960442 -0.309886E-08  0.607E-04    2.21      32.9  T
   7    -44.1960442 -0.425618E-08  0.185E-04    2.21     108.3  T
     SCC iter.                  ...        0 min,  0.422 sec
     gradient                   ...        0 min,  0.013 sec
 * total energy  :   -43.6869066 Eh     change       -0.3083230E-03 Eh
   gradient norm :     0.0057681 Eh/α   predicted    -0.2270279E-03 ( -26.37%)
   displ. norm   :     0.5138423 α      lambda       -0.3699936E-03
   maximum displ.:     0.4552624 α      in ANC's #1, #10, #2, ...

........................................................................
.............................. CYCLE   40 ..............................
........................................................................

 iter      E             dE          RMSdq      gap      omega  full diag
   1    -44.1940988 -0.441941E+02  0.124E-01    2.19       0.0  T
   2    -44.1941065 -0.772397E-05  0.735E-02    2.20       1.0  T
   3    -44.1940990  0.750038E-05  0.217E-02    2.19       1.0  T
   4    -44.1941091 -0.100409E-04  0.403E-03    2.20       5.0  T
   5    -44.1941092 -0.890505E-07  0.212E-03    2.20       9.4  T
   6    -44.1941092 -0.235597E-08  0.808E-04    2.20      24.8  T
   7    -44.1941092 -0.605921E-08  0.197E-04    2.20     101.5  T
     SCC iter.                  ...        0 min,  0.689 sec
     gradient                   ...        0 min,  0.010 sec
 * total energy  :   -43.6872079 Eh     change       -0.3012909E-03 Eh
   gradient norm :     0.0071550 Eh/α   predicted    -0.2338443E-03 ( -22.39%)
   displ. norm   :     0.5793166 α      lambda       -0.3865296E-03
   maximum displ.:     0.5157858 α      in ANC's #1, #10, #13, ...

........................................................................
.............................. CYCLE   41 ..............................
........................................................................

 iter      E             dE          RMSdq      gap      omega  full diag
   1    -44.1941898 -0.441942E+02  0.146E-01    2.16       0.0  T
   2    -44.1942031 -0.132343E-04  0.876E-02    2.19       1.0  T
   3    -44.1941853  0.177670E-04  0.332E-02    2.16       1.0  T
   4    -44.1942090 -0.236647E-04  0.451E-03    2.18       4.4  T
   5    -44.1942090 -0.683509E-07  0.244E-03    2.18       8.2  T
   6    -44.1942090 -0.134964E-08  0.949E-04    2.18      21.1  T
   7    -44.1942090 -0.912409E-08  0.219E-04    2.18      91.2  T
     SCC iter.                  ...        0 min,  0.480 sec
     gradient                   ...        0 min,  0.016 sec
 * total energy  :   -43.6874793 Eh     change       -0.2713625E-03 Eh
   gradient norm :     0.0094407 Eh/α   predicted    -0.2581271E-03 (  -4.88%)
   displ. norm   :     0.3667487 α      lambda       -0.2468881E-03
   maximum displ.:     0.3257726 α      in ANC's #1, #10, #5, ...

........................................................................
.............................. CYCLE   42 ..............................
........................................................................

 iter      E             dE          RMSdq      gap      omega  full diag
   1    -44.1940282 -0.441940E+02  0.826E-02    2.19       0.0  T
   2    -44.1940321 -0.388178E-05  0.487E-02    2.18       1.0  T
   3    -44.1940272  0.486913E-05  0.183E-02    2.19       1.1  T
   4    -44.1940340 -0.680387E-05  0.288E-03    2.18       6.9  T
   5    -44.1940340 -0.203647E-07  0.147E-03    2.18      13.6  T
   6    -44.1940340 -0.324188E-08  0.649E-04    2.18      30.8  T
   7    -44.1940340 -0.352954E-08  0.157E-04    2.18     127.3  T
     SCC iter.                  ...        0 min,  0.638 sec
     gradient                   ...        0 min,  0.072 sec
 * total energy  :   -43.6876550 Eh     change       -0.1757553E-03 Eh
   gradient norm :     0.0088426 Eh/α   predicted    -0.1400502E-03 ( -20.32%)
   displ. norm   :     0.3500053 α      lambda       -0.2672951E-03
   maximum displ.:     0.3039156 α      in ANC's #1, #10, #4, ...
 * RMSD in coord.:     1.5460682 α      energy gain  -0.8064839E-02 Eh

generating ANC from exact Hessian ...
Using Lindh-Hessian (1995)
 Shifting diagonal of input Hessian by    9.1322689217726780E-003
 Lowest  eigenvalues of input Hessian
    0.000000    0.000000    0.000000    0.000000    0.000000    0.000000
    0.010000    0.010533    0.011113    0.013391    0.016836    0.018279
    0.022779    0.024645    0.026612    0.028900    0.035234    0.041797
 Highest eigenvalues
    1.863887    1.920161    2.039708    2.080087    2.132837    2.278929


........................................................................
.............................. CYCLE   43 ..............................
........................................................................

 iter      E             dE          RMSdq      gap      omega  full diag
   1    -44.1976781 -0.441977E+02  0.918E-02    2.17       0.0  T
   2    -44.1976806 -0.250339E-05  0.544E-02    2.18       1.0  T
   3    -44.1976789  0.173156E-05  0.111E-02    2.17       1.8  T
   4    -44.1976815 -0.260883E-05  0.285E-03    2.18       7.0  T
   5    -44.1976815 -0.358768E-07  0.165E-03    2.18      12.1  T
   6    -44.1976815 -0.522071E-08  0.437E-04    2.18      45.7  T
   7    -44.1976815 -0.911044E-09  0.127E-04    2.18     157.9  T
     SCC iter.                  ...        0 min,  0.826 sec
     gradient                   ...        0 min,  0.015 sec
 * total energy  :   -43.6878333 Eh     change       -0.1782450E-03 Eh
   gradient norm :     0.0080403 Eh/α   predicted     0.0000000E+00 (-100.00%)
   displ. norm   :     0.0619168 α      lambda       -0.1495434E-03
   maximum displ.:     0.0410195 α      in ANC's #1, #5, #15, ...

........................................................................
.............................. CYCLE   44 ..............................
........................................................................

 iter      E             dE          RMSdq      gap      omega  full diag
   1    -44.1972376 -0.441972E+02  0.240E-02    2.20       0.0  T
   2    -44.1972404 -0.274314E-05  0.151E-02    2.19       1.3  T
   3    -44.1972410 -0.661273E-06  0.845E-03    2.19       2.4  T
   4    -44.1972415 -0.435128E-06  0.173E-03    2.19      11.5  T
   5    -44.1972415 -0.118617E-07  0.498E-04    2.19      40.1  T
   6    -44.1972415 -0.468830E-09  0.306E-04    2.19      65.4  T
     SCC iter.                  ...        0 min,  0.539 sec
     gradient                   ...        0 min,  0.017 sec
 * total energy  :   -43.6879554 Eh     change       -0.1220843E-03 Eh
   gradient norm :     0.0042231 Eh/α   predicted    -0.7505849E-04 ( -38.52%)
   displ. norm   :     0.1586132 α      lambda       -0.2239854E-03
   maximum displ.:     0.1138396 α      in ANC's #1, #5, #13, ...

........................................................................
.............................. CYCLE   45 ..............................
........................................................................

 iter      E             dE          RMSdq      gap      omega  full diag
   1    -44.1963084 -0.441963E+02  0.532E-02    2.22       0.0  T
   2    -44.1963186 -0.101108E-04  0.324E-02    2.20       1.0  T
   3    -44.1963196 -0.101212E-05  0.180E-02    2.21       1.1  T
   4    -44.1963222 -0.267031E-05  0.333E-03    2.20       6.0  T
   5    -44.1963223 -0.507674E-07  0.105E-03    2.20      19.1  T
   6    -44.1963223 -0.181571E-08  0.642E-04    2.20      31.1  T
   7    -44.1963223 -0.239857E-08  0.169E-04    2.20     118.0  T
     SCC iter.                  ...        0 min,  0.269 sec
     gradient                   ...        0 min,  0.017 sec
 * total energy  :   -43.6880964 Eh     change       -0.1409930E-03 Eh
   gradient norm :     0.0040042 Eh/α   predicted    -0.1148117E-03 ( -18.57%)
   displ. norm   :     0.1017646 α      lambda       -0.6459688E-04
   maximum displ.:     0.0824447 α      in ANC's #1, #5, #3, ...

........................................................................
.............................. CYCLE   46 ..............................
........................................................................

 iter      E             dE          RMSdq      gap      omega  full diag
   1    -44.1962148 -0.441962E+02  0.311E-02    2.21       0.0  T
   2    -44.1962167 -0.190939E-05  0.183E-02    2.20       1.1  T
   3    -44.1962163  0.430005E-06  0.940E-03    2.21       2.1  T
   4    -44.1962174 -0.107519E-05  0.142E-03    2.21      14.1  T
   5    -44.1962174 -0.135943E-07  0.527E-04    2.21      37.9  T
   6    -44.1962174 -0.558273E-09  0.312E-04    2.21      64.1  T
     SCC iter.                  ...        0 min,  0.165 sec
     gradient                   ...        0 min,  0.009 sec
 * total energy  :   -43.6881490 Eh     change       -0.5263933E-04 Eh
   gradient norm :     0.0042534 Eh/α   predicted    -0.3263385E-04 ( -38.00%)
   displ. norm   :     0.1177282 α      lambda       -0.7467894E-04
   maximum displ.:     0.0974438 α      in ANC's #1, #3, #5, ...

........................................................................
.............................. CYCLE   47 ..............................
........................................................................

 iter      E             dE          RMSdq      gap      omega  full diag
   1    -44.1966105 -0.441966E+02  0.365E-02    2.21       0.0  T
   2    -44.1966121 -0.159410E-05  0.214E-02    2.20       1.0  T
   3    -44.1966113  0.862052E-06  0.951E-03    2.21       2.1  T
   4    -44.1966126 -0.137467E-05  0.128E-03    2.20      15.6  T
   5    -44.1966126 -0.149899E-07  0.511E-04    2.21      39.1  T
   6    -44.1966126 -0.661615E-09  0.293E-04    2.21      68.3  T
     SCC iter.                  ...        0 min,  0.468 sec
     gradient                   ...        0 min,  0.009 sec
 * total energy  :   -43.6882104 Eh     change       -0.6137741E-04 Eh
   gradient norm :     0.0027585 Eh/α   predicted    -0.3785777E-04 ( -38.32%)
   displ. norm   :     0.1352174 α      lambda       -0.6847001E-04
   maximum displ.:     0.1109316 α      in ANC's #1, #3, #2, ...

........................................................................
.............................. CYCLE   48 ..............................
........................................................................

 iter      E             dE          RMSdq      gap      omega  full diag
   1    -44.1970046 -0.441970E+02  0.427E-02    2.21       0.0  T
   2    -44.1970062 -0.157449E-05  0.250E-02    2.20       1.0  T
   3    -44.1970049  0.130199E-05  0.105E-02    2.21       1.9  T
   4    -44.1970068 -0.189306E-05  0.108E-03    2.21      18.5  T
   5    -44.1970068 -0.984910E-08  0.468E-04    2.21      42.7  T
   6    -44.1970068 -0.516664E-09  0.259E-04    2.21      77.3  T
     SCC iter.                  ...        0 min,  0.270 sec
     gradient                   ...        0 min,  0.012 sec
 * total energy  :   -43.6882680 Eh     change       -0.5759196E-04 Eh
   gradient norm :     0.0023671 Eh/α   predicted    -0.3486237E-04 ( -39.47%)
   displ. norm   :     0.1450622 α      lambda       -0.6314585E-04
   maximum displ.:     0.1144007 α      in ANC's #1, #3, #2, ...

........................................................................
.............................. CYCLE   49 ..............................
........................................................................

 iter      E             dE          RMSdq      gap      omega  full diag
   1    -44.1972015 -0.441972E+02  0.466E-02    2.21       0.0  T
   2    -44.1972027 -0.120985E-05  0.274E-02    2.21       1.0  T
   3    -44.1972012  0.158054E-05  0.103E-02    2.22       1.9  T
   4    -44.1972033 -0.212139E-05  0.864E-04    2.21      23.1  T
   5    -44.1972033 -0.370757E-08  0.447E-04    2.21      44.7  T
   6    -44.1972033 -0.305526E-09  0.231E-04    2.21      86.7  T
     SCC iter.                  ...        0 min,  0.341 sec
     gradient                   ...        0 min,  0.009 sec
 * total energy  :   -43.6883253 Eh     change       -0.5727273E-04 Eh
   gradient norm :     0.0030982 Eh/α   predicted    -0.3224241E-04 ( -43.70%)
   displ. norm   :     0.1747060 α      lambda       -0.7724021E-04
   maximum displ.:     0.1310573 α      in ANC's #1, #3, #2, ...

........................................................................
.............................. CYCLE   50 ..............................
........................................................................

 iter      E             dE          RMSdq      gap      omega  full diag
   1    -44.1972417 -0.441972E+02  0.570E-02    2.22       0.0  T
   2    -44.1972426 -0.976325E-06  0.335E-02    2.21       1.0  T
   3    -44.1972408  0.180728E-05  0.100E-02    2.22       2.0  T
   4    -44.1972431 -0.228817E-05  0.931E-04    2.21      21.5  T
   5    -44.1972431 -0.167899E-08  0.521E-04    2.22      38.4  T
   6    -44.1972431 -0.313690E-09  0.231E-04    2.22      86.7  T
     SCC iter.                  ...        0 min,  0.255 sec
     gradient                   ...        0 min,  0.009 sec
 * total energy  :   -43.6883976 Eh     change       -0.7231931E-04 Eh
   gradient norm :     0.0036686 Eh/α   predicted    -0.3979939E-04 ( -44.97%)
   displ. norm   :     0.2346786 α      lambda       -0.1057381E-03
   maximum displ.:     0.1708751 α      in ANC's #1, #3, #2, ...

........................................................................
.............................. CYCLE   51 ..............................
........................................................................

 iter      E             dE          RMSdq      gap      omega  full diag
   1    -44.1970365 -0.441970E+02  0.771E-02    2.23       0.0  T
   2    -44.1970375 -0.102581E-05  0.453E-02    2.22       1.0  T
   3    -44.1970357  0.177093E-05  0.968E-03    2.23       2.1  T
   4    -44.1970380 -0.224721E-05  0.126E-03    2.22      15.9  T
   5    -44.1970380 -0.304422E-08  0.674E-04    2.22      29.7  T
   6    -44.1970380 -0.416890E-09  0.303E-04    2.22      65.9  T
     SCC iter.                  ...        0 min,  0.514 sec
     gradient                   ...        0 min,  0.009 sec
 * total energy  :   -43.6884965 Eh     change       -0.9893845E-04 Eh
   gradient norm :     0.0040076 Eh/α   predicted    -0.5578415E-04 ( -43.62%)
   displ. norm   :     0.3194585 α      lambda       -0.1406419E-03
   maximum displ.:     0.2292027 α      in ANC's #1, #3, #2, ...

........................................................................
.............................. CYCLE   52 ..............................
........................................................................

 iter      E             dE          RMSdq      gap      omega  full diag
   1    -44.1964845 -0.441965E+02  0.105E-01    2.23       0.0  T
   2    -44.1964858 -0.128588E-05  0.618E-02    2.23       1.0  T
   3    -44.1964845  0.130753E-05  0.892E-03    2.23       2.2  T
   4    -44.1964863 -0.181462E-05  0.174E-03    2.23      11.5  T
   5    -44.1964863 -0.103164E-07  0.898E-04    2.23      22.3  T
   6    -44.1964863 -0.629498E-09  0.393E-04    2.23      50.9  T
     SCC iter.                  ...        0 min,  0.401 sec
     gradient                   ...        0 min,  0.020 sec
 * total energy  :   -43.6886261 Eh     change       -0.1295686E-03 Eh
   gradient norm :     0.0045443 Eh/α   predicted    -0.7749906E-04 ( -40.19%)
   displ. norm   :     0.4062763 α      lambda       -0.1727966E-03
   maximum displ.:     0.2903149 α      in ANC's #1, #3, #2, ...

........................................................................
.............................. CYCLE   53 ..............................
........................................................................

 iter      E             dE          RMSdq      gap      omega  full diag
   1    -44.1955447 -0.441955E+02  0.133E-01    2.23       0.0  T
   2    -44.1955463 -0.160805E-05  0.784E-02    2.23       1.0  T
   3    -44.1955454  0.845052E-06  0.841E-03    2.23       2.4  T
   4    -44.1955469 -0.143809E-05  0.218E-03    2.23       9.2  T
   5    -44.1955469 -0.197024E-07  0.109E-03    2.23      18.3  T
   6    -44.1955469 -0.113813E-08  0.447E-04    2.23      44.7  T
   7    -44.1955469 -0.178408E-08  0.136E-04    2.23     146.8  T
     SCC iter.                  ...        0 min,  0.378 sec
     gradient                   ...        0 min,  0.014 sec
 * total energy  :   -43.6887793 Eh     change       -0.1532611E-03 Eh
   gradient norm :     0.0057288 Eh/α   predicted    -0.1006645E-03 ( -34.32%)
   displ. norm   :     0.4383306 α      lambda       -0.1852042E-03
   maximum displ.:     0.3184507 α      in ANC's #1, #3, #2, ...

........................................................................
.............................. CYCLE   54 ..............................
........................................................................

 iter      E             dE          RMSdq      gap      omega  full diag
   1    -44.1948570 -0.441949E+02  0.143E-01    2.23       0.0  T
   2    -44.1948584 -0.140625E-05  0.839E-02    2.23       1.0  T
   3    -44.1948583  0.166662E-06  0.640E-03    2.23       3.1  T
   4    -44.1948590 -0.693709E-06  0.222E-03    2.23       9.0  T
   5    -44.1948590 -0.206247E-07  0.108E-03    2.23      18.6  T
   6    -44.1948590 -0.140132E-08  0.388E-04    2.23      51.5  T
   7    -44.1948590 -0.136873E-08  0.129E-04    2.23     155.2  T
     SCC iter.                  ...        0 min,  0.368 sec
     gradient                   ...        0 min,  0.026 sec
 * total energy  :   -43.6889347 Eh     change       -0.1553291E-03 Eh
   gradient norm :     0.0070353 Eh/α   predicted    -0.1103964E-03 ( -28.93%)
   displ. norm   :     0.4309377 α      lambda       -0.2001832E-03
   maximum displ.:     0.3263108 α      in ANC's #1, #3, #2, ...

........................................................................
.............................. CYCLE   55 ..............................
........................................................................

 iter      E             dE          RMSdq      gap      omega  full diag
   1    -44.1955266 -0.441955E+02  0.137E-01    2.22       0.0  T
   2    -44.1955277 -0.104956E-05  0.808E-02    2.23       1.0  T
   3    -44.1955276  0.378831E-07  0.500E-03    2.22       4.0  T
   4    -44.1955281 -0.477236E-06  0.190E-03    2.23      10.6  T
   5    -44.1955281 -0.111575E-07  0.911E-04    2.23      22.0  T
   6    -44.1955281 -0.169845E-08  0.263E-04    2.22      76.1  T
     SCC iter.                  ...        0 min,  0.237 sec
     gradient                   ...        0 min,  0.022 sec
 * total energy  :   -43.6890991 Eh     change       -0.1644714E-03 Eh
   gradient norm :     0.0070456 Eh/α   predicted    -0.1186802E-03 ( -27.84%)
   displ. norm   :     0.4440516 α      lambda       -0.2234243E-03
   maximum displ.:     0.3516136 α      in ANC's #1, #3, #2, ...

........................................................................
.............................. CYCLE   56 ..............................
........................................................................

 iter      E             dE          RMSdq      gap      omega  full diag
   1    -44.1973816 -0.441974E+02  0.138E-01    2.21       0.0  T
   2    -44.1973827 -0.105150E-05  0.811E-02    2.22       1.0  T
   3    -44.1973822  0.521211E-06  0.650E-03    2.21       3.1  T
   4    -44.1973832 -0.101286E-05  0.177E-03    2.22      11.3  T
   5    -44.1973832 -0.363753E-08  0.821E-04    2.22      24.4  T
   6    -44.1973832 -0.230901E-08  0.220E-04    2.22      91.1  T
     SCC iter.                  ...        0 min,  0.397 sec
     gradient                   ...        0 min,  0.020 sec
 * total energy  :   -43.6892755 Eh     change       -0.1763801E-03 Eh
   gradient norm :     0.0054886 Eh/α   predicted    -0.1337423E-03 ( -24.17%)
   displ. norm   :     0.4995605 α      lambda       -0.1848025E-03
   maximum displ.:     0.3985118 α      in ANC's #1, #3, #2, ...

........................................................................
.............................. CYCLE   57 ..............................
........................................................................

 iter      E             dE          RMSdq      gap      omega  full diag
   1    -44.1967631 -0.441968E+02  0.155E-01    2.21       0.0  T
   2    -44.1967651 -0.201537E-05  0.912E-02    2.21       1.0  T
   3    -44.1967646  0.522351E-06  0.735E-03    2.21       2.7  T
   4    -44.1967657 -0.111070E-05  0.234E-03    2.21       8.5  T
   5    -44.1967658 -0.383931E-07  0.110E-03    2.21      18.2  T
   6    -44.1967658 -0.106992E-08  0.488E-04    2.21      41.0  T
   7    -44.1967658 -0.181772E-08  0.117E-04    2.21     170.7  T
     SCC iter.                  ...        0 min,  0.746 sec
     gradient                   ...        0 min,  0.021 sec
 * total energy  :   -43.6894216 Eh     change       -0.1460804E-03 Eh
   gradient norm :     0.0048967 Eh/α   predicted    -0.1154630E-03 ( -20.96%)
   displ. norm   :     0.4659506 α      lambda       -0.2207136E-03
   maximum displ.:     0.3944554 α      in ANC's #1, #3, #2, ...

........................................................................
.............................. CYCLE   58 ..............................
........................................................................

 iter      E             dE          RMSdq      gap      omega  full diag
   1    -44.2013777 -0.442014E+02  0.139E-01    2.20       0.0  T
   2    -44.2013808 -0.309942E-05  0.815E-02    2.20       1.0  T
   3    -44.2013793  0.151468E-05  0.104E-02    2.20       1.9  T
   4    -44.2013815 -0.224938E-05  0.237E-03    2.20       8.4  T
   5    -44.2013815 -0.400768E-07  0.113E-03    2.20      17.7  T
   6    -44.2013815 -0.193473E-08  0.585E-04    2.20      34.2  T
   7    -44.2013815 -0.209849E-08  0.151E-04    2.20     132.6  T
     SCC iter.                  ...        0 min,  0.449 sec
     gradient                   ...        0 min,  0.014 sec
 * total energy  :   -43.6895361 Eh     change       -0.1145290E-03 Eh
   gradient norm :     0.0049072 Eh/α   predicted    -0.1343186E-03 (  17.28%)
   displ. norm   :     0.6366619 α      lambda       -0.1766195E-03
   maximum displ.:     0.5075945 α      in ANC's #1, #3, #2, ...

........................................................................
.............................. CYCLE   59 ..............................
........................................................................

 iter      E             dE          RMSdq      gap      omega  full diag
   1    -44.1946439 -0.441946E+02  0.204E-01    2.21       0.0  T
   2    -44.1946539 -0.100306E-04  0.120E-01    2.19       1.0  T
   3    -44.1946419  0.119926E-04  0.258E-02    2.21       1.0  T
   4    -44.1946571 -0.151801E-04  0.346E-03    2.19       5.8  T
   5    -44.1946572 -0.833017E-07  0.176E-03    2.20      11.3  T
   6    -44.1946572 -0.664967E-08  0.921E-04    2.20      21.7  T
   7    -44.1946572 -0.265815E-08  0.258E-04    2.20      77.5  T
     SCC iter.                  ...        0 min,  0.602 sec
     gradient                   ...        0 min,  0.005 sec
 * total energy  :   -43.6895889 Eh     change       -0.5275028E-04 Eh
   gradient norm :     0.0073052 Eh/α   predicted    -0.1241160E-03 ( 135.29%)
   displ. norm   :     0.1076367 α      lambda       -0.1052373E-03
   maximum displ.:     0.0765707 α      in ANC's #1, #2, #3, ...

........................................................................
.............................. CYCLE   60 ..............................
........................................................................

 iter      E             dE          RMSdq      gap      omega  full diag
   1    -44.1985103 -0.441985E+02  0.399E-02    2.20       0.0  T
   2    -44.1985111 -0.830337E-06  0.235E-02    2.20       1.0  T
   3    -44.1985108  0.332702E-06  0.531E-03    2.20       3.8  T
   4    -44.1985112 -0.464210E-06  0.106E-03    2.20      18.8  T
   5    -44.1985112 -0.113631E-07  0.448E-04    2.20      44.7  T
   6    -44.1985112 -0.984457E-09  0.260E-04    2.20      77.0  T
     SCC iter.                  ...        0 min,  0.306 sec
     gradient                   ...        0 min,  0.009 sec
 * total energy  :   -43.6896525 Eh     change       -0.6365829E-04 Eh
   gradient norm :     0.0033016 Eh/α   predicted    -0.5325452E-04 ( -16.34%)
   displ. norm   :     0.2426691 α      lambda       -0.7176484E-04
   maximum displ.:     0.2022492 α      in ANC's #1, #3, #2, ...

........................................................................
.............................. CYCLE   61 ..............................
........................................................................

 iter      E             dE          RMSdq      gap      omega  full diag
   1    -44.1997716 -0.441998E+02  0.740E-02    2.21       0.0  T
   2    -44.1997727 -0.103722E-05  0.434E-02    2.21       1.0  T
   3    -44.1997709  0.176518E-05  0.964E-03    2.22       2.1  T
   4    -44.1997731 -0.221809E-05  0.107E-03    2.21      18.8  T
   5    -44.1997731 -0.144005E-08  0.556E-04    2.21      36.0  T
   6    -44.1997731 -0.745288E-09  0.207E-04    2.21      96.5  T
     SCC iter.                  ...        0 min,  0.544 sec
     gradient                   ...        0 min,  0.009 sec
 * total energy  :   -43.6897096 Eh     change       -0.5711014E-04 Eh
   gradient norm :     0.0020944 Eh/α   predicted    -0.3800024E-04 ( -33.46%)
   displ. norm   :     0.5170758 α      lambda       -0.9760147E-04
   maximum displ.:     0.4268079 α      in ANC's #1, #3, #2, ...

........................................................................
.............................. CYCLE   62 ..............................
........................................................................

 iter      E             dE          RMSdq      gap      omega  full diag
   1    -44.1983510 -0.441984E+02  0.162E-01    2.23       0.0  T
   2    -44.1983562 -0.522779E-05  0.950E-02    2.21       1.0  T
   3    -44.1983481  0.814402E-05  0.209E-02    2.23       1.0  T
   4    -44.1983584 -0.103021E-04  0.238E-03    2.22       8.4  T
   5    -44.1983584 -0.111443E-07  0.133E-03    2.22      15.0  T
   6    -44.1983584 -0.285887E-08  0.539E-04    2.22      37.1  T
   7    -44.1983584 -0.170634E-08  0.171E-04    2.22     117.0  T
     SCC iter.                  ...        0 min,  0.691 sec
     gradient                   ...        0 min,  0.023 sec
 * total energy  :   -43.6897680 Eh     change       -0.5839776E-04 Eh
   gradient norm :     0.0030583 Eh/α   predicted    -0.6185487E-04 (   5.92%)
   displ. norm   :     0.2525734 α      lambda       -0.4233981E-04
   maximum displ.:     0.2091967 α      in ANC's #1, #3, #2, ...

........................................................................
.............................. CYCLE   63 ..............................
........................................................................

 iter      E             dE          RMSdq      gap      omega  full diag
   1    -44.1978866 -0.441979E+02  0.786E-02    2.23       0.0  T
   2    -44.1978879 -0.127506E-05  0.460E-02    2.22       1.0  T
   3    -44.1978859  0.196450E-05  0.103E-02    2.23       1.9  T
   4    -44.1978884 -0.249079E-05  0.116E-03    2.23      17.2  T
   5    -44.1978884 -0.198390E-08  0.629E-04    2.23      31.8  T
   6    -44.1978884 -0.418467E-09  0.277E-04    2.23      72.2  T
     SCC iter.                  ...        0 min,  0.328 sec
     gradient                   ...        0 min,  0.029 sec
 * total energy  :   -43.6897815 Eh     change       -0.1350504E-04 Eh
   gradient norm :     0.0038634 Eh/α   predicted    -0.2252410E-04 (  66.78%)
   displ. norm   :     0.0243003 α      lambda       -0.2423431E-04
   maximum displ.:     0.0150613 α      in ANC's #1, #2, #10, ...

........................................................................
.............................. CYCLE   64 ..............................
........................................................................

 iter      E             dE          RMSdq      gap      omega  full diag
   1    -44.1992619 -0.441993E+02  0.108E-02    2.23       0.0  T
   2    -44.1992620 -0.107744E-06  0.637E-03    2.23       3.1  T
   3    -44.1992620  0.435416E-07  0.229E-03    2.23       8.7  T
   4    -44.1992620 -0.724607E-07  0.382E-04    2.23      52.3  T
   5    -44.1992620 -0.913531E-09  0.227E-04    2.23      88.2  T
     SCC iter.                  ...        0 min,  0.242 sec
     gradient                   ...        0 min,  0.010 sec
 * total energy  :   -43.6897971 Eh     change       -0.1557123E-04 Eh
   gradient norm :     0.0015573 Eh/α   predicted    -0.1212540E-04 ( -22.13%)
   displ. norm   :     0.0368919 α      lambda        0.3563232E-05
   maximum displ.:     0.0229537 α      in ANC's #1, #2, #10, ...

........................................................................
.............................. CYCLE   65 ..............................
........................................................................

 iter      E             dE          RMSdq      gap      omega  full diag
   1    -44.2013074 -0.442013E+02  0.163E-02    2.23       0.0  T
   2    -44.2013077 -0.249728E-06  0.964E-03    2.23       2.1  T
   3    -44.2013076  0.975285E-07  0.347E-03    2.23       5.8  T
   4    -44.2013077 -0.164966E-06  0.590E-04    2.23      33.9  T
   5    -44.2013077 -0.210609E-08  0.354E-04    2.23      56.6  T
     SCC iter.                  ...        0 min,  0.208 sec
     gradient                   ...        0 min,  0.019 sec
 * total energy  :   -43.6897879 Eh     change        0.9240336E-05 Eh
   gradient norm :     0.0040288 Eh/α   predicted     0.1782236E-05 ( -80.71%)
   displ. norm   :     0.1595587 α      lambda       -0.2898525E-04
   maximum displ.:     0.1326370 α      in ANC's #1, #3, #2, ...

........................................................................
.............................. CYCLE   66 ..............................
........................................................................

 iter      E             dE          RMSdq      gap      omega  full diag
   1    -44.1997474 -0.441997E+02  0.505E-02    2.24       0.0  T
   2    -44.1997479 -0.514349E-06  0.296E-02    2.23       1.0  T
   3    -44.1997475  0.443618E-06  0.508E-03    2.24       3.9  T
   4    -44.1997481 -0.589216E-06  0.884E-04    2.23      22.6  T
   5    -44.1997481 -0.451525E-08  0.460E-04    2.23      43.5  T
     SCC iter.                  ...        0 min,  0.122 sec
     gradient                   ...        0 min,  0.017 sec
 * total energy  :   -43.6898070 Eh     change       -0.1909974E-04 Eh
   gradient norm :     0.0024498 Eh/α   predicted    -0.1486248E-04 ( -22.18%)
   displ. norm   :     0.1221951 α      lambda       -0.1871741E-04
   maximum displ.:     0.1024465 α      in ANC's #1, #3, #2, ...
 * RMSD in coord.:     1.1583959 α      energy gain  -0.2151933E-02 Eh

generating ANC from exact Hessian ...
Using Lindh-Hessian (1995)
 Shifting diagonal of input Hessian by    9.2948183225040198E-003
 Lowest  eigenvalues of input Hessian
    0.000000    0.000000    0.000000    0.000000    0.000000    0.000000
    0.010000    0.010889    0.011450    0.013149    0.016316    0.018697
    0.023212    0.025074    0.026512    0.029148    0.035011    0.042015
 Highest eigenvalues
    1.826554    1.915478    2.029796    2.051492    2.128236    2.294491


........................................................................
.............................. CYCLE   67 ..............................
........................................................................

 iter      E             dE          RMSdq      gap      omega  full diag
   1    -44.1991309 -0.441991E+02  0.379E-02    2.23       0.0  T
   2    -44.1991312 -0.372092E-06  0.222E-02    2.23       1.0  T
   3    -44.1991309  0.313401E-06  0.441E-03    2.24       4.5  T
   4    -44.1991313 -0.413461E-06  0.783E-04    2.23      25.5  T
   5    -44.1991314 -0.453090E-08  0.390E-04    2.23      51.2  T
     SCC iter.                  ...        0 min,  0.118 sec
     gradient                   ...        0 min,  0.018 sec
 * total energy  :   -43.6898131 Eh     change       -0.6099608E-05 Eh
   gradient norm :     0.0021123 Eh/α   predicted     0.0000000E+00 (-100.00%)
   displ. norm   :     0.0080369 α      lambda       -0.6676357E-05
   maximum displ.:     0.0034025 α      in ANC's #7, #4, #1, ...

........................................................................
.............................. CYCLE   68 ..............................
........................................................................

 iter      E             dE          RMSdq      gap      omega  full diag
   1    -44.1997373 -0.441997E+02  0.509E-03    2.23       0.0  T
   2    -44.1997374 -0.241126E-07  0.307E-03    2.23       6.5  T
   3    -44.1997373  0.123670E-07  0.111E-03    2.23      18.0  T
   4    -44.1997374 -0.187894E-07  0.158E-04    2.23     126.3  T
   5    -44.1997374 -0.171752E-09  0.894E-05    2.23     223.7  T
     SCC iter.                  ...        0 min,  0.243 sec
     gradient                   ...        0 min,  0.030 sec
 * total energy  :   -43.6898179 Eh     change       -0.4772374E-05 Eh
   gradient norm :     0.0007844 Eh/α   predicted    -0.3470171E-05 ( -27.29%)
   displ. norm   :     0.0157472 α      lambda       -0.2154502E-05
   maximum displ.:     0.0069181 α      in ANC's #4, #7, #1, ...

   *** GEOMETRY OPTIMIZATION CONVERGED AFTER 68 ITERATIONS ***

------------------------------------------------------------------------
 total energy gain   :        -0.0565515 Eh      -35.4866 kcal/mol
 total RMSD          :         2.3081348 a0        1.2214 Å
 total power (kW/mol):        -2.1834716 (step)   -4.1444 (real)
------------------------------------------------------------------------

 ANCopt (total)                0 d,  0 h,  0 min, 35.826 sec
 optimizer setup                ...        0 min,  0.000 sec (  0.000%)
 model hessian                  ...        0 min,  0.019 sec (  0.054%)
 ANC generation                 ...        0 min,  0.658 sec (  1.837%)
 coordinate transformation      ...        0 min,  0.001 sec (  0.003%)
 single point calculation       ...        0 min, 35.039 sec ( 97.803%)
 optimization log               ...        0 min,  0.015 sec (  0.042%)
 hessian update                 ...        0 min,  0.073 sec (  0.203%)
 rational function              ...        0 min,  0.009 sec (  0.025%)

================
 final structure:
================
25
 xtb: 6.7.1 (edcfbbe)
O           -0.71845815662469        1.12860697361296       -0.73517138457182
N            3.80588042046180       -1.52015368403998        1.20372301728570
C            2.58952738957246       -0.83508896834568        0.71052347635878
C            1.57474090270087       -1.58121830242077        0.13340743357504
C            2.50972664853806        0.54700422515740        0.78722298350798
C            0.35115016929128        0.45060443195953       -0.27593956643154
C            0.45488546854406       -0.93801055016590       -0.35704500317252
C            1.38954297553227        1.18699518926220        0.29956510900535
H            1.65353220273002       -2.65363836542078        0.05945363710801
H            3.30528739990957        1.12321768821301        1.23389522392072
H           -0.34137249153577       -1.51414226571159       -0.80159105645551
H            1.29114149911792        2.25848743974658        0.35460375578031
H            6.72081104467082        0.80534778190479       -1.63060117635010
H            4.66232852632968       -2.99242043178757       -1.50535761077800
H           -1.38727172998056        0.53363851972002       -1.10878925489030
O            5.52828807795664       -1.03868813392325       -0.43984967406823
O            5.70778868102974        0.28957907965334        1.36322091522848
O            4.20119765259334       -2.90380439502377       -0.65182831919195
C            6.05775708016911        0.01733798901091        0.22357077145903
C            4.67997736492800       -1.92827055116104        0.11582144093381
C            7.05802268803033        0.73737293153936       -0.60012260391160
H            4.36740041810974       -0.83960680059094        1.78003984529564
H            7.99599812568937        0.18287156483673       -0.59046802253869
H            7.23302133762133        1.72467878481427       -0.18479437024159
H            3.54212246060766       -2.34796503373342        1.75882640903749

 Bond Distances (Angstroems)
 ---------------------------
O1-C6=1.3471         O1-H15=0.9700        N2-C3=1.4806         N2-C20=1.4540        N2-H22=1.0538        N2-H25=1.0310        
C3-N2=1.4806         C3-C4=1.3855         C3-C5=1.3865         C4-C3=1.3855         C4-C7=1.3814         C4-H9=1.0779         
C5-C3=1.3865         C5-C8=1.3792         C5-H10=1.0791        C6-O1=1.3471         C6-C7=1.3948         C6-C8=1.3970         
C7-C4=1.3814         C7-C6=1.3948         C7-H11=1.0787        C8-C5=1.3792         C8-C6=1.3970         C8-H12=1.0774        
H9-C4=1.0779         H10-C5=1.0791        H11-C7=1.0787        H12-C8=1.0774        H13-C21=1.0864       H14-O18=0.9742       
H15-O1=0.9700        O16-C19=1.3549       O16-C20=1.3490       O17-C19=1.2229       O18-H14=0.9742       O18-C20=1.3305       
C19-O16=1.3549       C19-O17=1.2229       C19-C21=1.4824       C20-N2=1.4540        C20-O16=1.3490       C20-O18=1.3305       
C21-H13=1.0864       C21-C19=1.4824       C21-H23=1.0897       C21-H24=1.0853       H22-N2=1.0538        H23-C21=1.0897       
H24-C21=1.0853       H25-N2=1.0310        
 C  H  Rav=1.0821 sigma=0.0046  Rmin=1.0774  Rmax=1.0897     7
 C  C  Rav=1.4010 sigma=0.0338  Rmin=1.3792  Rmax=1.4824     7
 N  H  Rav=1.0424 sigma=0.0114  Rmin=1.0310  Rmax=1.0538     2
 N  C  Rav=1.4673 sigma=0.0133  Rmin=1.4540  Rmax=1.4806     2
 O  H  Rav=0.9721 sigma=0.0021  Rmin=0.9700  Rmax=0.9742     2
 O  C  Rav=1.3209 sigma=0.0497  Rmin=1.2229  Rmax=1.3549     5

 selected bond angles (degree)
 --------------------
H15-O1-C6=111.72               C20-N2-C3=111.99               H22-N2-C3=108.73               H22-N2-C20=105.67              
H25-N2-C3=109.92               H25-N2-C20=109.35              H25-N2-H22=111.12              C4-C3-N2=119.43                
C5-C3-N2=119.35                C5-C3-C4=121.18                C7-C4-C3=119.40                H9-C4-C3=120.72                
H9-C4-C7=119.88                C8-C5-C3=119.32                H10-C5-C3=120.85               H10-C5-C8=119.83               
C7-C6-O1=122.70                C8-C6-O1=117.73                C8-C6-C7=119.57                C6-C7-C4=120.21                
H11-C7-C4=119.74               H11-C7-C6=120.05               C6-C8-C5=120.31                H12-C8-C5=121.17               
H12-C8-C6=118.51               

 selected dihedral angles (degree)
 ---------------------------------
C4-C3-N2-C20= 75.18           C4-C3-N2-H22=191.58           C4-C3-N2-H25=313.42           C5-C3-N2-C20=257.70           
C5-C3-N2-H22= 14.09           C5-C3-N2-H25=135.94           C7-C4-C3-N2=181.62            C7-C4-C3-C5=359.06            
H9-C4-C3-N2=  1.29            H9-C4-C3-C5=178.74            C8-C5-C3-N2=178.52            C8-C5-C3-C4=  1.08            
H10-C5-C3-N2=357.72           H10-C5-C3-C4=180.28           C7-C6-O1-H15=  0.59           C8-C6-O1-H15=180.47           
C6-C7-C4-C3=  0.26            C6-C7-C4-H9=180.58            H11-C7-C4-C3=180.40           H11-C7-C4-H9=  0.73           
C4-C7-C6-O1=180.14            C4-C7-C6-C8=  0.26            H11-C7-C6-O1=  0.00           H11-C7-C6-C8=180.12           
C6-C8-C5-C3=359.46            C6-C8-C5-H10=180.25           H12-C8-C5-C3=179.26           H12-C8-C5-H10=  0.05          
C5-C8-C6-O1=179.99            C5-C8-C6-C7=359.88            H12-C8-C6-O1=  0.19           H12-C8-C6-C7=180.08           
           -------------------------------------------------
          |                Final Singlepoint                |
           -------------------------------------------------

          ...................................................
          :                      SETUP                      :
          :.................................................:
          :  # basis functions                  67          :
          :  # atomic orbitals                  67          :
          :  # shells                           39          :
          :  # electrons                        75          :
          :  max. iterations                   250          :
          :  Hamiltonian                  GFN2-xTB          :
          :  restarted?                      false          :
          :  GBSA solvation                   true          :
          :  PC potential                    false          :
          :  electronic temp.          300.0000000     K    :
          :  accuracy                    1.0000000          :
          :  -> integral cutoff          0.2500000E+02      :
          :  -> integral neglect         0.1000000E-07      :
          :  -> SCF convergence          0.1000000E-05 Eh   :
          :  -> wf. convergence          0.1000000E-03 e    :
          :  Broyden damping             0.4000000          :
          :  net charge                          1          :
          :  unpaired electrons                  0          :
          ...................................................

 iter      E             dE          RMSdq      gap      omega  full diag
   1    -44.1997374 -0.441997E+02  0.460E-05    2.23       0.0  T
   2    -44.1997374 -0.454747E-11  0.300E-05    2.23     666.6  T
   3    -44.1997374 -0.618172E-12  0.182E-05    2.23    1096.3  T

   *** convergence criteria satisfied after 3 iterations ***

         #    Occupation            Energy/Eh            Energy/eV
      -------------------------------------------------------------
         1        2.0000           -0.7993696             -21.7520
       ...           ...                  ...                  ...
        32        2.0000           -0.4845040             -13.1840
        33        2.0000           -0.4782785             -13.0146
        34        2.0000           -0.4538636             -12.3503
        35        2.0000           -0.4384178             -11.9300
        36        2.0000           -0.4275999             -11.6356
        37        2.0000           -0.4030195             -10.9667
        38        1.0000           -0.3393577              -9.2344 (HOMO)
        39                         -0.2573365              -7.0025 (LUMO)
        40                         -0.2448290              -6.6621
        41                         -0.2373752              -6.4593
        42                         -0.1129103              -3.0724
        43                         -0.0718429              -1.9549
       ...                                ...                  ...
        67                          0.6406837              17.4339
      -------------------------------------------------------------
                  HL-Gap            0.0820211 Eh            2.2319 eV
             Fermi-level           -0.3347678 Eh           -9.1095 eV

 SCC (total)                   0 d,  0 h,  0 min,  0.262 sec
 SCC setup                      ...        0 min,  0.001 sec (  0.490%)
 Dispersion                     ...        0 min,  0.004 sec (  1.634%)
 classical contributions        ...        0 min,  0.000 sec (  0.077%)
 integral evaluation            ...        0 min,  0.002 sec (  0.633%)
 iterations                     ...        0 min,  0.245 sec ( 93.543%)
 molecular gradient             ...        0 min,  0.009 sec (  3.438%)
 printout                       ...        0 min,  0.000 sec (  0.168%)

         :::::::::::::::::::::::::::::::::::::::::::::::::::::
         ::                     SUMMARY                     ::
         :::::::::::::::::::::::::::::::::::::::::::::::::::::
         :: total energy             -43.689817851745 Eh    ::
         :: total w/o Gsasa/hb       -43.670781681420 Eh    ::
         :: gradient norm              0.000784956086 Eh/a0 ::
         :: HOMO-LUMO gap              2.231907880250 eV    ::
         ::.................................................::
         :: SCC energy               -44.199576392027 Eh    ::
         :: -> isotropic ES            0.183576220723 Eh    ::
         :: -> anisotropic ES         -0.011318666055 Eh    ::
         :: -> anisotropic XC          0.008333407512 Eh    ::
         :: -> dispersion             -0.020921697342 Eh    ::
         :: -> Gsolv                  -0.106634926724 Eh    ::
         ::    -> Gelec               -0.087598756399 Eh    ::
         ::    -> Gsasa                0.002204878846 Eh    ::
         ::    -> Ghb                 -0.022321808868 Eh    ::
         ::    -> Gshift               0.001080759698 Eh    ::
         :: repulsion energy           0.509758540282 Eh    ::
         :: add. restraining           0.000000000000 Eh    ::
         :: total charge               1.000000000000 e     ::
         :::::::::::::::::::::::::::::::::::::::::::::::::::::

           -------------------------------------------------
          |                Property Printout                |
           -------------------------------------------------

    * Orbital Energies and Occupations

         #    Occupation            Energy/Eh            Energy/eV
      -------------------------------------------------------------
         1        2.0000           -0.7993696             -21.7520
       ...           ...                  ...                  ...
        26        2.0000           -0.5173293             -14.0772
        27        2.0000           -0.5038875             -13.7115
        28        2.0000           -0.4998851             -13.6026
        29        2.0000           -0.4892940             -13.3144
        30        2.0000           -0.4860503             -13.2261
        31        2.0000           -0.4850736             -13.1995
        32        2.0000           -0.4845040             -13.1840
        33        2.0000           -0.4782785             -13.0146
        34        2.0000           -0.4538636             -12.3503
        35        2.0000           -0.4384178             -11.9300
        36        2.0000           -0.4275999             -11.6356
        37        2.0000           -0.4030195             -10.9667
        38        1.0000           -0.3393577              -9.2344 (HOMO)
        39                         -0.2573365              -7.0025 (LUMO)
        40                         -0.2448290              -6.6621
        41                         -0.2373752              -6.4593
        42                         -0.1129103              -3.0724
        43                         -0.0718429              -1.9549
        44                         -0.0133681              -0.3638
        45                          0.0269646               0.7337
        46                          0.0555321               1.5111
        47                          0.0717431               1.9522
        48                          0.0797152               2.1692
        49                          0.1210683               3.2944
       ...                                ...                  ...
        67                          0.6406837              17.4339
      -------------------------------------------------------------
                  HL-Gap            0.0820211 Eh            2.2319 eV
             Fermi-level           -0.3347678 Eh           -9.1095 eV

     #   Z          covCN         q      C6AA      α(0)
     1   8 O        1.660    -0.439    21.623     6.277
     2   7 N        3.532    -0.065    22.488     7.043
     3   6 C        2.916     0.042    27.064     8.531
     4   6 C        2.917    -0.044    29.088     8.844
     5   6 C        2.917    -0.043    29.076     8.842
     6   6 C        2.844     0.160    24.543     8.119
     7   6 C        2.920    -0.069    29.724     8.941
     8   6 C        2.922    -0.055    29.356     8.885
     9   1 H        0.926     0.098     1.804     2.100
    10   1 H        0.926     0.081     1.967     2.193
    11   1 H        0.926     0.070     2.085     2.258
    12   1 H        0.926     0.069     2.092     2.262
    13   1 H        0.925     0.117     1.638     2.001
    14   1 H        0.804     0.446     0.408     1.004
    15   1 H        0.804     0.382     0.519     1.131
    16   8 O        1.709    -0.217    17.609     5.666
    17   8 O        0.856    -0.468    23.082     6.441
    18   8 O        1.658    -0.370    20.274     6.078
    19   6 C        2.707     0.348    21.084     7.516
    20   6 C        2.646     0.271    22.421     7.746
    21   6 C        3.754    -0.180    24.083     6.998
    22   1 H        0.857     0.317     0.666     1.278
    23   1 H        0.925     0.126     1.562     1.955
    24   1 H        0.925     0.104     1.752     2.070
    25   1 H        0.859     0.318     0.661     1.274

 Mol. C6AA /au·bohr⁶  :       6591.046449
 Mol. C8AA /au·bohr⁸  :     155056.311099
 Mol. α(0) /au        :        125.453232


Wiberg/Mayer (AO) data.
largest (>0.10) Wiberg bond orders for each atom

 ---------------------------------------------------------------------------
     #   Z sym  total        # sym  WBO       # sym  WBO       # sym  WBO
 ---------------------------------------------------------------------------
     1   8 O    2.112 --     6 C    1.108    15 H    0.833
     2   7 N    3.697 --    20 C    0.968     3 C    0.906    25 H    0.868
                            22 H    0.818
     3   6 C    3.914 --     4 C    1.402     5 C    1.396     2 N    0.906
     4   6 C    3.985 --     7 C    1.457     3 C    1.402     9 H    0.958
                             8 C    0.103
     5   6 C    3.988 --     8 C    1.466     3 C    1.396    10 H    0.959
     6   6 C    3.936 --     7 C    1.356     8 C    1.347     1 O    1.108
     7   6 C    3.986 --     4 C    1.457     6 C    1.356    11 H    0.963
     8   6 C    3.988 --     5 C    1.466     6 C    1.347    12 H    0.965
                             4 C    0.103
     9   1 H    0.990 --     4 C    0.958
    10   1 H    0.993 --     5 C    0.959
    11   1 H    0.995 --     7 C    0.963
    12   1 H    0.994 --     8 C    0.965
    13   1 H    0.986 --    21 C    0.955
    14   1 H    0.801 --    18 O    0.779
    15   1 H    0.854 --     1 O    0.833
    16   8 O    2.420 --    20 C    1.090    19 C    1.063    17 O    0.130
    17   8 O    2.011 --    19 C    1.639    16 O    0.130
    18   8 O    2.174 --    20 C    1.241    14 H    0.779
    19   6 C    3.895 --    17 O    1.639    16 O    1.063    21 C    1.031
    20   6 C    3.536 --    18 O    1.241    16 O    1.090     2 N    0.968
    21   6 C    3.977 --    19 C    1.031    24 H    0.971    13 H    0.955
                            23 H    0.929
    22   1 H    0.899 --     2 N    0.818
    23   1 H    0.983 --    21 C    0.929
    24   1 H    0.989 --    21 C    0.971
    25   1 H    0.898 --     2 N    0.868
 ---------------------------------------------------------------------------

Topologies differ in total number of bonds
Writing topology from bond orders to xtbtopo.mol

molecular dipole:
                 x           y           z       tot (Debye)
 q only:        7.057      -3.337      -0.124
   full:        7.109      -3.370      -0.262      20.007
molecular quadrupole (traceless):
                xx          xy          yy          xz          yz          zz
 q only:       60.839     -31.073     -25.511      -5.419      -2.918     -35.328
  q+dip:       63.865     -30.782     -26.555      -4.903      -2.466     -37.310
   full:       64.007     -31.343     -28.022      -5.856      -3.016     -35.985

           -------------------------------------------------
          |                Geometry Summary                 |
           -------------------------------------------------

      molecular mass/u    :      197.1882942
   center of mass at/Å    :        3.2883467      -0.4745376       0.1078044
  moments of inertia/u·Å² :        0.4029975E+03   0.1240266E+04   0.1446038E+04
rotational constants/cm⁻¹ :        0.4183061E-01   0.1359195E-01   0.1165781E-01

 * 24 selected distances

     #   Z          #   Z                                           value/Å
     3   6 C        4   6 C                                       1.3854833
     3   6 C        5   6 C                                       1.3865183
     1   8 O        6   6 C                                       1.3470871
     4   6 C        7   6 C                                       1.3814255
     6   6 C        7   6 C                                       1.3948444
     5   6 C        8   6 C                                       1.3792065
     6   6 C        8   6 C                                       1.3970458
     4   6 C        9   1 H                                       1.0778508
     5   6 C       10   1 H                                       1.0790992
     7   6 C       11   1 H                                       1.0786918
     8   6 C       12   1 H                                       1.0774080
     1   8 O       15   1 H                                       0.9699946 (min)
    14   1 H       18   8 O                                       0.9741699
    16   8 O       19   6 C                                       1.3548637
    17   8 O       19   6 C                                       1.2228638
     2   7 N       20   6 C                                       1.4540066
    16   8 O       20   6 C                                       1.3489843
    18   8 O       20   6 C                                       1.3304822
    13   1 H       21   6 C                                       1.0863787
    19   6 C       21   6 C                                       1.4823808 (max)
     2   7 N       22   1 H                                       1.0538454
    21   6 C       23   1 H                                       1.0896619
    21   6 C       24   1 H                                       1.0853088
     2   7 N       25   1 H                                       1.0310091

 * 6 distinct bonds (by element types)

   Z      Z             #   av. dist./Å        max./Å        min./Å
   1 H    6 C           7     1.0820570     1.0896619     1.0774080
   6 C    6 C           7     1.4009864     1.4823808     1.3792065
   1 H    7 N           2     1.0424273     1.0538454     1.0310091
   6 C    7 N           1     1.4540066     1.4540066     1.4540066
   1 H    8 O           2     0.9720822     0.9741699     0.9699946
   6 C    8 O           5     1.3208562     1.3548637     1.2228638


optimized geometry written to: xtbopt.xyz


           -------------------------------------------------
          | TOTAL ENERGY              -43.689817851745 Eh   |
          | GRADIENT NORM               0.000784956086 Eh/α |
          | HOMO-LUMO GAP               2.231907880250 eV   |
           -------------------------------------------------

------------------------------------------------------------------------
 * finished run on 2026/06/09 at 01:52:08.746     
------------------------------------------------------------------------
 total:
 * wall-time:     0 d,  0 h,  0 min, 36.807 sec
 *  cpu-time:     0 d,  0 h,  7 min, 24.033 sec
 * ratio c/w:    12.064 speedup
 SCF:
 * wall-time:     0 d,  0 h,  0 min,  0.658 sec
 *  cpu-time:     0 d,  0 h,  0 min,  7.781 sec
 * ratio c/w:    11.823 speedup
 ANC optimizer:
 * wall-time:     0 d,  0 h,  0 min, 36.090 sec
 *  cpu-time:     0 d,  0 h,  7 min, 15.657 sec
 * ratio c/w:    12.072 speedup

