25
energy: -23.399468764848 gnorm: 0.000303058454 xtb: 6.7.1 (edcfbbe)
O     -1.6443007404    0.2137406896   -0.2433435576
N      3.8363809641   -0.3691089536    0.4361313820
C      2.4771845152   -0.2648126646    0.2638929811
C      1.6219302866   -1.3918798676    0.1911479282
C      1.8726469192    1.0134033864    0.1957765782
C     -0.3469196948    0.0256089925   -0.0586140195
C      0.2330280464   -1.2566531186    0.0446156665
C      0.4855615928    1.1577218782    0.0254367279
H      2.0253077228   -2.3837618025    0.2897660356
H      2.4672199411    1.9194681711    0.2515817428
H     -0.3777678845   -2.1509502253   -0.0105423550
H      0.0599745546    2.1555968558   -0.0618915234
H      8.1696928652    0.2312901072   -0.9874011725
H      4.0534284638   -2.6692150904   -1.3703021718
H     -2.2165783116   -0.6237156420   -0.2859419589
O      5.9367684274   -0.9650379378   -0.5474362680
O      6.4385869319   -0.6269001539    1.6014403787
O      4.0536528208   -1.6655492060   -1.4977681388
C      6.7446887222   -0.5502249868    0.4172767284
C      4.6139231681   -1.0866738258   -0.4576950421
C      8.1321164612   -0.1212321870    0.0657459401
H      4.3162994568    0.5150002028    0.7279159803
H      8.8687810853   -0.9418055642    0.2115553425
H      8.4155138441    0.7490265602    0.7001060314
H      3.9959059977   -1.0206005006    1.2408627398
