25
 energy: -43.689817851745 gnorm: 0.000784956086 xtb: 6.7.1 (edcfbbe)
O           -0.71845815662469        1.12860697361296       -0.73517138457182
N            3.80588042046180       -1.52015368403998        1.20372301728570
C            2.58952738957246       -0.83508896834568        0.71052347635878
C            1.57474090270087       -1.58121830242077        0.13340743357504
C            2.50972664853806        0.54700422515740        0.78722298350798
C            0.35115016929128        0.45060443195953       -0.27593956643154
C            0.45488546854406       -0.93801055016590       -0.35704500317252
C            1.38954297553227        1.18699518926220        0.29956510900535
H            1.65353220273002       -2.65363836542078        0.05945363710801
H            3.30528739990957        1.12321768821301        1.23389522392072
H           -0.34137249153577       -1.51414226571159       -0.80159105645551
H            1.29114149911792        2.25848743974658        0.35460375578031
H            6.72081104467082        0.80534778190479       -1.63060117635010
H            4.66232852632968       -2.99242043178757       -1.50535761077800
H           -1.38727172998056        0.53363851972002       -1.10878925489030
O            5.52828807795664       -1.03868813392325       -0.43984967406823
O            5.70778868102974        0.28957907965334        1.36322091522848
O            4.20119765259334       -2.90380439502377       -0.65182831919195
C            6.05775708016911        0.01733798901091        0.22357077145903
C            4.67997736492800       -1.92827055116104        0.11582144093381
C            7.05802268803033        0.73737293153936       -0.60012260391160
H            4.36740041810974       -0.83960680059094        1.78003984529564
H            7.99599812568937        0.18287156483673       -0.59046802253869
H            7.23302133762133        1.72467878481427       -0.18479437024159
H            3.54212246060766       -2.34796503373342        1.75882640903749
