13
 energy: -23.843251539171 gnorm: 0.000504269978 xtb: 6.7.1 (edcfbbe)
O           -0.00002372205363        0.56242624958164       -0.00002671146508
O            1.34809258014806       -1.26646230305064       -0.00173159798425
O           -1.34807556687111       -1.26651079016210        0.00144194471752
C            1.21790857199171       -0.07327268673726       -0.00085226507127
C           -1.21793320343747       -0.07331581378706        0.00082531680996
C            2.30586976617693        0.94352157802933        0.00111206843612
C           -2.30593215478310        0.94343939084877       -0.00074211252642
H            3.27002674470447        0.44676977390619       -0.00671714044702
H            2.20750494225789        1.56955933117884        0.88452641213278
H            2.19893896523545        1.58284028476457       -0.87155475907395
H           -2.20049766391144        1.58061349724385        0.87368727233417
H           -3.27008007542454        0.44663669669265        0.00446333592916
H           -2.20609918403323        1.57165479149124       -0.88243176379171
