      -----------------------------------------------------------      
     |                   =====================                   |     
     |                           x T B                           |     
     |                   =====================                   |     
     |                         S. Grimme                         |     
     |          Mulliken Center for Theoretical Chemistry        |     
     |                    University of Bonn                     |     
      -----------------------------------------------------------      

   * xtb version 6.7.1 (edcfbbe) compiled by 'conda@c0858423619e' on 2025-09-04

   xtb is free software: you can redistribute it and/or modify it under
   the terms of the GNU Lesser General Public License as published by
   the Free Software Foundation, either version 3 of the License, or
   (at your option) any later version.
   
   xtb is distributed in the hope that it will be useful,
   but WITHOUT ANY WARRANTY; without even the implied warranty of
   MERCHANTABILITY or FITNESS FOR A PARTICULAR PURPOSE.  See the
   GNU Lesser General Public License for more details.
   
   Cite this work as:
   * C. Bannwarth, E. Caldeweyher, S. Ehlert, A. Hansen, P. Pracht,
     J. Seibert, S. Spicher, S. Grimme, WIREs Comput. Mol. Sci., 2020, 11,
     e01493. DOI: 10.1002/wcms.1493
   
   for GFN2-xTB:
   * C. Bannwarth, S. Ehlert and S. Grimme., J. Chem. Theory Comput., 2019,
     15, 1652-1671. DOI: 10.1021/acs.jctc.8b01176
   for GFN1-xTB:
   * S. Grimme, C. Bannwarth, P. Shushkov, J. Chem. Theory Comput., 2017,
     13, 1989-2009. DOI: 10.1021/acs.jctc.7b00118
   for GFN0-xTB:
   * P. Pracht, E. Caldeweyher, S. Ehlert, S. Grimme, ChemRxiv, 2019, preprint.
     DOI: 10.26434/chemrxiv.8326202.v1
   for GFN-FF:
   * S. Spicher and S. Grimme, Angew. Chem. Int. Ed., 2020, 59, 15665-15673.
     DOI: 10.1002/anie.202004239
   
   for ALPB and GBSA implicit solvation:
   * S. Ehlert, M. Stahn, S. Spicher, S. Grimme, J. Chem. Theory Comput.,
     2021, 17, 4250-4261. DOI: 10.1021/acs.jctc.1c00471
   
   for ddCOSMO and CPCM-X implicit solvation:
   * M. Stahn, S. Ehlert, S. Grimme, J. Phys. Chem. A,
     2023, XX, XXXX-XXXX. DOI: 10.1021/acs.jpca.3c04382
   
   for DFT-D4:
   * E. Caldeweyher, C. Bannwarth and S. Grimme, J. Chem. Phys., 2017,
     147, 034112. DOI: 10.1063/1.4993215
   * E. Caldeweyher, S. Ehlert, A. Hansen, H. Neugebauer, S. Spicher,
     C. Bannwarth and S. Grimme, J. Chem. Phys., 2019, 150, 154122.
     DOI: 10.1063/1.5090222
   * E. Caldeweyher, J.-M. Mewes, S. Ehlert and S. Grimme, Phys. Chem. Chem. Phys.
     2020, 22, 8499-8512. DOI: 10.1039/D0CP00502A
   
   for sTDA-xTB:
   * S. Grimme and C. Bannwarth, J. Chem. Phys., 2016, 145, 054103.
     DOI: 10.1063/1.4959605
   
   in the mass-spec context:
   * V. Asgeirsson, C. Bauer and S. Grimme, Chem. Sci., 2017, 8, 4879.
     DOI: 10.1039/c7sc00601b
   * J. Koopman and S. Grimme, ACS Omega 2019, 4, 12, 15120-15133.
     DOI: 10.1021/acsomega.9b02011
   
   for metadynamics refer to:
   * S. Grimme, J. Chem. Theory Comput., 2019, 155, 2847-2862
     DOI: 10.1021/acs.jctc.9b00143
   
   for SPH calculations refer to:
   * S. Spicher and S. Grimme, J. Chem. Theory Comput., 2021, 17, 1701-1714
     DOI: 10.1021/acs.jctc.0c01306
   
   for ONIOM refer to:
   * C. Plett, A. Katbashev, S. Ehlert, S. Grimme, M. Bursch,
     Phys. Chem. Chem. Phys., 2023, 25, 17860-17868. DOI: 10.1039/D3CP02178E
   
   for DIPRO refer to:
   * J. Kohn, N. Gildemeister, S. Grimme, D. Fazzi, A. Hansen,
     J. Chem. Phys., 2023, just accepted.
   
   for PTB refer to:
   * S. Grimme, M. Mueller, A. Hansen, J. Chem. Phys., 2023, 158, 124111.
     DOI: 10.1063/5.0137838
   
   with help from (in alphabetical order)
   P. Atkinson, C. Bannwarth, F. Bohle, G. Brandenburg, E. Caldeweyher
   M. Checinski, S. Dohm, S. Ehlert, S. Ehrlich, I. Gerasimov, C. Hölzer
   A. Katbashev, J. Kohn, J. Koopman, C. Lavigne, S. Lehtola, F. März, M. Müller,
   F. Musil, H. Neugebauer, J. Pisarek, C. Plett, P. Pracht, F. Pultar,
   J. Seibert, P. Shushkov, S. Spicher, M. Stahn, M. Steiner, T. Strunk,
   J. Stückrath, T. Rose, and J. Unsleber
   
 * started run on 2026/06/07 at 13:50:40.064     
   ID    Z sym.   atoms
    1    8 O      1-3
    2    6 C      4-7
    3    1 H      8-13

           -------------------------------------------------
          |                Calculation Setup                |
           -------------------------------------------------

          program call               : xtb acetic_anhydride.xyz --opt
          hostname                   : fedora
          coordinate file            : acetic_anhydride.xyz
          omp threads                :                    16


           -------------------------------------------------
          |                 G F N 2 - x T B                 |
           -------------------------------------------------

        Reference                      10.1021/acs.jctc.8b01176
      * Hamiltonian:
        H0-scaling (s, p, d)           1.850000    2.230000    2.230000
        zeta-weighting                 0.500000
      * Dispersion:
        s8                             2.700000
        a1                             0.520000
        a2                             5.000000
        s9                             5.000000
      * Repulsion:
        kExp                           1.500000    1.000000
        rExp                           1.000000
      * Coulomb:
        alpha                          2.000000
        third order                    shell-resolved
        anisotropic                    true
        a3                             3.000000
        a5                             4.000000
        cn-shift                       1.200000
        cn-exp                         4.000000
        max-rad                        5.000000


          ...................................................
          :                      SETUP                      :
          :.................................................:
          :  # basis functions                  34          :
          :  # atomic orbitals                  34          :
          :  # shells                           20          :
          :  # electrons                        40          :
          :  max. iterations                   250          :
          :  Hamiltonian                  GFN2-xTB          :
          :  restarted?                      false          :
          :  GBSA solvation                  false          :
          :  PC potential                    false          :
          :  electronic temp.          300.0000000     K    :
          :  accuracy                    1.0000000          :
          :  -> integral cutoff          0.2500000E+02      :
          :  -> integral neglect         0.1000000E-07      :
          :  -> SCF convergence          0.1000000E-05 Eh   :
          :  -> wf. convergence          0.1000000E-03 e    :
          :  Broyden damping             0.4000000          :
          :  net charge                          0          :
          :  unpaired electrons                  0          :
          ...................................................

 iter      E             dE          RMSdq      gap      omega  full diag
   1    -23.9550518 -0.239551E+02  0.517E+00    4.48       0.0  T
   2    -24.0244382 -0.693864E-01  0.271E+00    3.27       1.0  T
   3    -24.0366799 -0.122417E-01  0.174E+00    3.80       1.0  T
   4    -24.0423649 -0.568502E-02  0.132E-01    3.57       1.0  T
   5    -24.0424596 -0.946922E-04  0.721E-02    3.61       1.0  T
   6    -24.0424715 -0.119544E-04  0.245E-02    3.59       1.1  T
   7    -24.0424761 -0.458580E-05  0.594E-03    3.60       4.7  T
   8    -24.0424762 -0.112110E-06  0.242E-03    3.60      11.5  T
   9    -24.0424763 -0.461809E-07  0.600E-04    3.60      46.2  T
  10    -24.0424763 -0.973198E-09  0.997E-05    3.60     278.1  T

   *** convergence criteria satisfied after 10 iterations ***

         #    Occupation            Energy/Eh            Energy/eV
      -------------------------------------------------------------
         1        2.0000           -0.7795883             -21.2137
       ...           ...                  ...                  ...
        14        2.0000           -0.5067347             -13.7890
        15        2.0000           -0.5037324             -13.7073
        16        2.0000           -0.4968418             -13.5198
        17        2.0000           -0.4931167             -13.4184
        18        2.0000           -0.4890819             -13.3086
        19        2.0000           -0.4518553             -12.2956
        20        2.0000           -0.4189046             -11.3990 (HOMO)
        21                         -0.2867638              -7.8032 (LUMO)
        22                         -0.2354114              -6.4059
        23                          0.0179685               0.4889
        24                          0.1211753               3.2973
        25                          0.1291329               3.5139
       ...                                ...                  ...
        34                          0.6179470              16.8152
      -------------------------------------------------------------
                  HL-Gap            0.1321408 Eh            3.5957 eV
             Fermi-level           -0.3528342 Eh           -9.6011 eV

 SCC (total)                   0 d,  0 h,  0 min,  0.046 sec
 SCC setup                      ...        0 min,  0.001 sec (  2.119%)
 Dispersion                     ...        0 min,  0.004 sec (  8.720%)
 classical contributions        ...        0 min,  0.002 sec (  4.055%)
 integral evaluation            ...        0 min,  0.007 sec ( 15.275%)
 iterations                     ...        0 min,  0.026 sec ( 57.356%)
 molecular gradient             ...        0 min,  0.006 sec ( 12.048%)
 printout                       ...        0 min,  0.000 sec (  0.363%)

         :::::::::::::::::::::::::::::::::::::::::::::::::::::
         ::                     SUMMARY                     ::
         :::::::::::::::::::::::::::::::::::::::::::::::::::::
         :: total energy             -23.824577378770 Eh    ::
         :: gradient norm              0.102371325171 Eh/a0 ::
         :: HOMO-LUMO gap              3.595734991132 eV    ::
         ::.................................................::
         :: SCC energy               -24.042468923525 Eh    ::
         :: -> isotropic ES            0.067832733292 Eh    ::
         :: -> anisotropic ES          0.002720191192 Eh    ::
         :: -> anisotropic XC          0.002740599803 Eh    ::
         :: -> dispersion             -0.006827856267 Eh    ::
         :: repulsion energy           0.217891544755 Eh    ::
         :: add. restraining           0.000000000000 Eh    ::
         :: total charge              -0.000000000000 e     ::
         :::::::::::::::::::::::::::::::::::::::::::::::::::::

      ----------------------------------------------------------- 
     |                   =====================                   |
     |                        A N C O P T                        |
     |                   =====================                   |
     |               Approximate Normal Coordinate               |
     |                Rational Function Optimizer                |
      ----------------------------------------------------------- 
      ----------------------------------------------------------- 
     |                   =====================                   |
     |                        A N C O P T                        |
     |                   =====================                   |
     |               Approximate Normal Coordinate               |
     |                Rational Function Optimizer                |
      ----------------------------------------------------------- 

          ...................................................
          :                      SETUP                      :
          :.................................................:
          :   optimization level            normal          :
          :   max. optcycles                   200          :
          :   ANC micro-cycles                  20          :
          :   degrees of freedom                33          :
          :.................................................:
          :   RF solver                   davidson          :
          :   write xtbopt.log                true          :
          :   linear?                        false          :
          :   energy convergence         0.5000000E-05 Eh   :
          :   grad. convergence          0.1000000E-02 Eh/α :
          :   maxmium RF displ.          1.0000000          :
          :   Hlow (freq-cutoff)         0.1000000E-01      :
          :   Hmax (freq-cutoff)         5.0000000          :
          :   S6 in model hess.         20.0000000          :
          ...................................................

generating ANC from exact Hessian ...
Using Lindh-Hessian (1995)
 Shifting diagonal of input Hessian by    6.0876915082960720E-003
 Lowest  eigenvalues of input Hessian
    0.000000    0.000000    0.000000    0.000000    0.000000    0.000000
    0.010000    0.010363    0.015754    0.018935    0.037090    0.043956
    0.045460    0.054232    0.073358    0.079657    0.083487    0.109902
 Highest eigenvalues
    1.127733    1.148984    1.422625    1.746751    2.274483    2.289880


........................................................................
.............................. CYCLE    1 ..............................
........................................................................

 iter      E             dE          RMSdq      gap      omega  full diag
   1    -24.0424763 -0.240425E+02  0.162E-05    3.60       0.0  T
   2    -24.0424763 -0.105160E-11  0.876E-06    3.60    3164.5  T
   3    -24.0424763 -0.316192E-12  0.522E-06    3.60    5308.9  T
     SCC iter.                  ...        0 min,  0.003 sec
     gradient                   ...        0 min,  0.005 sec
 * total energy  :   -23.8245774 Eh     change       -0.7648637E-10 Eh
   gradient norm :     0.1023733 Eh/α   predicted     0.0000000E+00 (-100.00%)
   displ. norm   :     0.1527166 α      lambda       -0.8771254E-02
   maximum displ.:     0.0806275 α      in ANC's #6, #3, #23, ...

........................................................................
.............................. CYCLE    2 ..............................
........................................................................

 iter      E             dE          RMSdq      gap      omega  full diag
   1    -24.0672488 -0.240672E+02  0.250E-01    3.90       0.0  T
   2    -24.0675742 -0.325339E-03  0.152E-01    3.88       1.0  T
   3    -24.0675784 -0.429638E-05  0.872E-02    3.88       1.0  T
   4    -24.0675791 -0.606549E-06  0.718E-03    3.88       3.9  T
   5    -24.0675791 -0.801894E-07  0.364E-03    3.88       7.6  T
   6    -24.0675791  0.455853E-08  0.119E-03    3.88      23.3  T
   7    -24.0675791 -0.105682E-07  0.212E-04    3.88     130.6  T
   8    -24.0675791 -0.408420E-10  0.431E-05    3.88     644.1  T
     SCC iter.                  ...        0 min,  0.007 sec
     gradient                   ...        0 min,  0.005 sec
 * total energy  :   -23.8300514 Eh     change       -0.5474009E-02 Eh
   gradient norm :     0.0243923 Eh/α   predicted    -0.4487911E-02 ( -18.01%)
   displ. norm   :     0.1363531 α      lambda       -0.1168902E-02
   maximum displ.:     0.1197569 α      in ANC's #3, #6, #23, ...

........................................................................
.............................. CYCLE    3 ..............................
........................................................................

 iter      E             dE          RMSdq      gap      omega  full diag
   1    -24.0727915 -0.240728E+02  0.110E-01    3.97       0.0  T
   2    -24.0728635 -0.719964E-04  0.660E-02    3.98       1.0  T
   3    -24.0728657 -0.218233E-05  0.371E-02    3.97       1.0  T
   4    -24.0728653  0.343943E-06  0.138E-02    3.98       2.0  T
   5    -24.0728660 -0.697218E-06  0.190E-03    3.97      14.6  T
   6    -24.0728660 -0.821889E-08  0.867E-04    3.97      32.0  T
   7    -24.0728660 -0.353495E-09  0.189E-04    3.97     147.0  T
     SCC iter.                  ...        0 min,  0.011 sec
     gradient                   ...        0 min,  0.004 sec
 * total energy  :   -23.8307512 Eh     change       -0.6998515E-03 Eh
   gradient norm :     0.0097535 Eh/α   predicted    -0.5953182E-03 ( -14.94%)
   displ. norm   :     0.1106708 α      lambda       -0.2368906E-03
   maximum displ.:     0.1085210 α      in ANC's #3, #6, #23, ...

........................................................................
.............................. CYCLE    4 ..............................
........................................................................

 iter      E             dE          RMSdq      gap      omega  full diag
   1    -24.0722253 -0.240722E+02  0.449E-02    3.98       0.0  T
   2    -24.0722341 -0.879179E-05  0.272E-02    3.99       1.0  T
   3    -24.0722348 -0.631058E-06  0.147E-02    3.99       1.9  T
   4    -24.0722349 -0.960790E-07  0.550E-03    3.99       5.0  T
   5    -24.0722349 -0.792281E-07  0.110E-03    3.99      25.3  T
   6    -24.0722349 -0.228239E-08  0.263E-04    3.99     105.5  T
   7    -24.0722349 -0.409877E-10  0.142E-04    3.99     194.8  T
     SCC iter.                  ...        0 min,  0.018 sec
     gradient                   ...        0 min,  0.005 sec
 * total energy  :   -23.8309121 Eh     change       -0.1608333E-03 Eh
   gradient norm :     0.0047023 Eh/α   predicted    -0.1198959E-03 ( -25.45%)
   displ. norm   :     0.0971126 α      lambda       -0.9647993E-04
   maximum displ.:     0.0957824 α      in ANC's #3, #9, #4, ...

........................................................................
.............................. CYCLE    5 ..............................
........................................................................

 iter      E             dE          RMSdq      gap      omega  full diag
   1    -24.0717079 -0.240717E+02  0.351E-02    3.99       0.0  T
   2    -24.0717096 -0.179296E-05  0.204E-02    3.99       1.4  T
   3    -24.0717096  0.941866E-08  0.841E-03    3.99       3.3  T
   4    -24.0717098 -0.157953E-06  0.202E-03    3.99      13.7  T
   5    -24.0717098 -0.190012E-07  0.688E-04    3.99      40.3  T
   6    -24.0717098 -0.669655E-09  0.174E-04    3.99     159.9  T
     SCC iter.                  ...        0 min,  0.004 sec
     gradient                   ...        0 min,  0.004 sec
 * total energy  :   -23.8309683 Eh     change       -0.5624304E-04 Eh
   gradient norm :     0.0015327 Eh/α   predicted    -0.4869528E-04 ( -13.42%)
   displ. norm   :     0.0470227 α      lambda       -0.1752139E-04
   maximum displ.:     0.0429324 α      in ANC's #3, #6, #4, ...

........................................................................
.............................. CYCLE    6 ..............................
........................................................................

 iter      E             dE          RMSdq      gap      omega  full diag
   1    -24.0720986 -0.240721E+02  0.239E-02    3.99       0.0  T
   2    -24.0720988 -0.119240E-06  0.147E-02    3.99       1.9  T
   3    -24.0720987  0.756008E-07  0.330E-03    3.99       8.4  T
   4    -24.0720988 -0.105989E-06  0.523E-04    3.99      53.1  T
   5    -24.0720988 -0.367212E-09  0.262E-04    3.99     105.9  T
     SCC iter.                  ...        0 min,  0.003 sec
     gradient                   ...        0 min,  0.003 sec
 * total energy  :   -23.8309755 Eh     change       -0.7145849E-05 Eh
   gradient norm :     0.0018049 Eh/α   predicted    -0.8768879E-05 (  22.71%)
   displ. norm   :     0.0123519 α      lambda       -0.7162568E-05
   maximum displ.:     0.0079856 α      in ANC's #4, #3, #17, ...

........................................................................
.............................. CYCLE    7 ..............................
........................................................................

 iter      E             dE          RMSdq      gap      omega  full diag
   1    -24.0723701 -0.240724E+02  0.105E-02    4.00       0.0  T
   2    -24.0723702 -0.926687E-07  0.659E-03    3.99       4.2  T
   3    -24.0723702  0.132812E-07  0.248E-03    4.00      11.2  T
   4    -24.0723702 -0.271554E-07  0.358E-04    4.00      77.4  T
   5    -24.0723702 -0.452545E-09  0.158E-04    4.00     176.0  T
     SCC iter.                  ...        0 min,  0.003 sec
     gradient                   ...        0 min,  0.003 sec
 * total energy  :   -23.8309794 Eh     change       -0.3909400E-05 Eh
   gradient norm :     0.0006894 Eh/α   predicted    -0.3580495E-05 (  -8.41%)
   displ. norm   :     0.0053433 α      lambda       -0.1132315E-05
   maximum displ.:     0.0030526 α      in ANC's #3, #6, #9, ...

   *** GEOMETRY OPTIMIZATION CONVERGED AFTER 7 ITERATIONS ***

------------------------------------------------------------------------
 total energy gain   :        -0.0064020 Eh       -4.0173 kcal/mol
 total RMSD          :         0.1338816 a0        0.0708 Å
 total power (kW/mol):        -2.4012041 (step) -161.4859 (real)
------------------------------------------------------------------------

 ANCopt (total)                0 d,  0 h,  0 min,  0.104 sec
 optimizer setup                ...        0 min,  0.000 sec (  0.091%)
 model hessian                  ...        0 min,  0.001 sec (  0.796%)
 ANC generation                 ...        0 min,  0.000 sec (  0.292%)
 coordinate transformation      ...        0 min,  0.000 sec (  0.045%)
 single point calculation       ...        0 min,  0.099 sec ( 95.507%)
 optimization log               ...        0 min,  0.001 sec (  0.741%)
 hessian update                 ...        0 min,  0.001 sec (  1.128%)
 rational function              ...        0 min,  0.001 sec (  0.631%)

================
 final structure:
================
13
 xtb: 6.7.1 (edcfbbe)
O           -0.00002379755765        0.56630078832438       -0.00005966382791
O            1.35479116826751       -1.26420141841696       -0.00284727980413
O           -1.35477392481168       -1.26425084027958        0.00264528492971
C            1.21476478496330       -0.08392464407160       -0.00161177456153
C           -1.21478927697938       -0.08396802076453        0.00157156441846
C            2.30844761785848        0.94559983819904        0.00132569931332
C           -2.30851000190071        0.94551793011075       -0.00095117374177
H            3.27435492421574        0.45056947006388       -0.00716681550350
H            2.21612065275411        1.56905027096052        0.88746108011171
H            2.20739251346983        1.58392594596430       -0.87299133912994
H           -2.20899357576732        1.58164213737582        0.87515858806209
H           -3.27440898782444        0.45043414046083        0.00480345229439
H           -2.21467209668779        1.57120440207315       -0.88533762256088

 Bond Distances (Angstroems)
 ---------------------------
O1-C4=1.3779         O1-C5=1.3779         O2-C4=1.1886         O3-C5=1.1886         C4-O1=1.3779         C4-O2=1.1886         
C4-C6=1.5020         C5-O1=1.3779         C5-O3=1.1886         C5-C7=1.5020         C6-C4=1.5020         C6-H8=1.0854         
C6-H9=1.0874         C6-H10=1.0872        C7-C5=1.5020         C7-H11=1.0873        C7-H12=1.0854        C7-H13=1.0874        
H8-C6=1.0854         H9-C6=1.0874         H10-C6=1.0872        H11-C7=1.0873        H12-C7=1.0854        H13-C7=1.0874        
 C  H  Rav=1.0867 sigma=0.0009  Rmin=1.0854  Rmax=1.0874     6
 C  C  Rav=1.5020 sigma=0.0000  Rmin=1.5020  Rmax=1.5020     2
 O  C  Rav=1.2832 sigma=0.0947  Rmin=1.1886  Rmax=1.3779     4

 selected bond angles (degree)
 --------------------
C5-O1-C4=123.68                O2-C4-O1=124.92                C6-C4-O1=108.57                C6-C4-O2=126.50                
O3-C5-O1=124.92                C7-C5-O1=108.57                C7-C5-O3=126.50                H8-C6-C4=109.59                
H9-C6-C4=109.44                H9-C6-H8=110.09                H10-C6-C4=109.46               H10-C6-H8=110.13               
H10-C6-H9=108.11               H11-C7-C5=109.45               H12-C7-C5=109.59               H12-C7-H11=110.12              
H13-C7-C5=109.45               H13-C7-H11=108.11              H13-C7-H12=110.09              

 selected dihedral angles (degree)
 ---------------------------------
O2-C4-O1-C5=  0.07            C6-C4-O1-C5=180.18            O3-C5-O1-C4=  0.05            C7-C5-O1-C4=180.16            
H8-C6-C4-O1=180.41            H8-C6-C4-O2=  0.52            H9-C6-C4-O1= 59.60            H9-C6-C4-O2=239.72            
H10-C6-C4-O1=301.29           H10-C6-C4-O2=121.41           H11-C7-C5-O1=301.12           H11-C7-C5-O3=121.23           
H12-C7-C5-O1=180.25           H12-C7-C5-O3=  0.36           H13-C7-C5-O1= 59.43           H13-C7-C5-O3=239.54           
           -------------------------------------------------
          |                Final Singlepoint                |
           -------------------------------------------------

          ...................................................
          :                      SETUP                      :
          :.................................................:
          :  # basis functions                  34          :
          :  # atomic orbitals                  34          :
          :  # shells                           20          :
          :  # electrons                        40          :
          :  max. iterations                   250          :
          :  Hamiltonian                  GFN2-xTB          :
          :  restarted?                      false          :
          :  GBSA solvation                  false          :
          :  PC potential                    false          :
          :  electronic temp.          300.0000000     K    :
          :  accuracy                    1.0000000          :
          :  -> integral cutoff          0.2500000E+02      :
          :  -> integral neglect         0.1000000E-07      :
          :  -> SCF convergence          0.1000000E-05 Eh   :
          :  -> wf. convergence          0.1000000E-03 e    :
          :  Broyden damping             0.4000000          :
          :  net charge                          0          :
          :  unpaired electrons                  0          :
          ...................................................

 iter      E             dE          RMSdq      gap      omega  full diag
   1    -24.0723702 -0.240724E+02  0.453E-05    4.00       0.0  T
   2    -24.0723702 -0.130385E-11  0.285E-05    4.00     974.4  T
   3    -24.0723702 -0.394351E-12  0.761E-06    4.00    3646.3  T

   *** convergence criteria satisfied after 3 iterations ***

         #    Occupation            Energy/Eh            Energy/eV
      -------------------------------------------------------------
         1        2.0000           -0.7698338             -20.9482
       ...           ...                  ...                  ...
        14        2.0000           -0.5021560             -13.6644
        15        2.0000           -0.5012844             -13.6406
        16        2.0000           -0.4974144             -13.5353
        17        2.0000           -0.4954536             -13.4820
        18        2.0000           -0.4909823             -13.3603
        19        2.0000           -0.4530016             -12.3268
        20        2.0000           -0.4223614             -11.4930 (HOMO)
        21                         -0.2755396              -7.4978 (LUMO)
        22                         -0.2235779              -6.0839
        23                         -0.0000587              -0.0016
        24                          0.1324672               3.6046
        25                          0.1445075               3.9322
       ...                                ...                  ...
        34                          0.7100845              19.3224
      -------------------------------------------------------------
                  HL-Gap            0.1468219 Eh            3.9952 eV
             Fermi-level           -0.3489505 Eh           -9.4954 eV

 SCC (total)                   0 d,  0 h,  0 min,  0.007 sec
 SCC setup                      ...        0 min,  0.000 sec (  1.581%)
 Dispersion                     ...        0 min,  0.000 sec (  2.627%)
 classical contributions        ...        0 min,  0.000 sec (  1.179%)
 integral evaluation            ...        0 min,  0.001 sec ( 21.777%)
 iterations                     ...        0 min,  0.002 sec ( 23.981%)
 molecular gradient             ...        0 min,  0.003 sec ( 46.977%)
 printout                       ...        0 min,  0.000 sec (  1.689%)

         :::::::::::::::::::::::::::::::::::::::::::::::::::::
         ::                     SUMMARY                     ::
         :::::::::::::::::::::::::::::::::::::::::::::::::::::
         :: total energy             -23.830979371209 Eh    ::
         :: gradient norm              0.000690414430 Eh/a0 ::
         :: HOMO-LUMO gap              3.995225977449 eV    ::
         ::.................................................::
         :: SCC energy               -24.072361847288 Eh    ::
         :: -> isotropic ES            0.067186456128 Eh    ::
         :: -> anisotropic ES          0.001384759901 Eh    ::
         :: -> anisotropic XC          0.001919467516 Eh    ::
         :: -> dispersion             -0.006809252358 Eh    ::
         :: repulsion energy           0.241382476079 Eh    ::
         :: add. restraining           0.000000000000 Eh    ::
         :: total charge              -0.000000000000 e     ::
         :::::::::::::::::::::::::::::::::::::::::::::::::::::

           -------------------------------------------------
          |                Property Printout                |
           -------------------------------------------------

    * Orbital Energies and Occupations

         #    Occupation            Energy/Eh            Energy/eV
      -------------------------------------------------------------
         1        2.0000           -0.7698338             -20.9482
       ...           ...                  ...                  ...
         8        2.0000           -0.6104779             -16.6119
         9        2.0000           -0.5785546             -15.7433
        10        2.0000           -0.5776442             -15.7185
        11        2.0000           -0.5640914             -15.3497
        12        2.0000           -0.5388815             -14.6637
        13        2.0000           -0.5088816             -13.8474
        14        2.0000           -0.5021560             -13.6644
        15        2.0000           -0.5012844             -13.6406
        16        2.0000           -0.4974144             -13.5353
        17        2.0000           -0.4954536             -13.4820
        18        2.0000           -0.4909823             -13.3603
        19        2.0000           -0.4530016             -12.3268
        20        2.0000           -0.4223614             -11.4930 (HOMO)
        21                         -0.2755396              -7.4978 (LUMO)
        22                         -0.2235779              -6.0839
        23                         -0.0000587              -0.0016
        24                          0.1324672               3.6046
        25                          0.1445075               3.9322
        26                          0.1470928               4.0026
        27                          0.1476904               4.0189
        28                          0.1749531               4.7607
        29                          0.1949289               5.3043
        30                          0.1964240               5.3450
        31                          0.2232295               6.0744
       ...                                ...                  ...
        34                          0.7100845              19.3224
      -------------------------------------------------------------
                  HL-Gap            0.1468219 Eh            3.9952 eV
             Fermi-level           -0.3489505 Eh           -9.4954 eV

     #   Z          covCN         q      C6AA      α(0)
     1   8 O        1.708    -0.278    18.614     5.825
     2   8 O        0.856    -0.333    20.390     6.054
     3   8 O        0.856    -0.333    20.390     6.054
     4   6 C        2.696     0.369    20.749     7.455
     5   6 C        2.696     0.369    20.749     7.455
     6   6 C        3.754    -0.151    23.475     6.909
     7   6 C        3.754    -0.151    23.475     6.909
     8   1 H        0.925     0.083     1.950     2.184
     9   1 H        0.925     0.086     1.920     2.167
    10   1 H        0.925     0.086     1.921     2.168
    11   1 H        0.925     0.086     1.921     2.167
    12   1 H        0.925     0.083     1.950     2.184
    13   1 H        0.925     0.086     1.920     2.167

 Mol. C6AA /au·bohr⁶  :       1628.055789
 Mol. C8AA /au·bohr⁸  :      35893.912080
 Mol. α(0) /au        :         59.697348


Wiberg/Mayer (AO) data.
largest (>0.10) Wiberg bond orders for each atom

 ---------------------------------------------------------------------------
     #   Z sym  total        # sym  WBO       # sym  WBO       # sym  WBO
 ---------------------------------------------------------------------------
     1   8 O    2.344 --     5 C    1.012     4 C    1.012     2 O    0.135
                             3 O    0.135
     2   8 O    2.118 --     4 C    1.853     1 O    0.135
     3   8 O    2.118 --     5 C    1.853     1 O    0.135
     4   6 C    3.909 --     2 O    1.853     1 O    1.012     6 C    0.993
     5   6 C    3.909 --     3 O    1.853     1 O    1.012     7 C    0.993
     6   6 C    3.989 --     4 C    0.993     8 H    0.981    10 H    0.960
                             9 H    0.959
     7   6 C    3.989 --     5 C    0.993    12 H    0.981    11 H    0.960
                            13 H    0.959
     8   1 H    0.992 --     6 C    0.981
     9   1 H    0.993 --     6 C    0.959
    10   1 H    0.993 --     6 C    0.960
    11   1 H    0.993 --     7 C    0.960
    12   1 H    0.992 --     7 C    0.981
    13   1 H    0.993 --     7 C    0.959
 ---------------------------------------------------------------------------

Topologies differ in total number of bonds
Writing topology from bond orders to xtbtopo.mol

molecular dipole:
                 x           y           z       tot (Debye)
 q only:       -0.000       1.801       0.000
   full:       -0.000       2.081       0.001       5.289
molecular quadrupole (traceless):
                xx          xy          yy          xz          yz          zz
 q only:        6.591       0.000      -5.433       0.018       0.001      -1.157
  q+dip:        5.635       0.000      -6.788       0.025       0.001       1.153
   full:        5.427       0.000      -7.742       0.024       0.001       2.316

           -------------------------------------------------
          |                Geometry Summary                 |
           -------------------------------------------------

      molecular mass/u    :      102.0888029
   center of mass at/Å    :       -0.0000133      -0.0336178       0.0000174
  moments of inertia/u·Å² :        0.9135820E+02   0.2666536E+03   0.3517629E+03
rotational constants/cm⁻¹ :        0.1845224E+00   0.6321923E-01   0.4792328E-01

 * 10 selected distances

     #   Z          #   Z                                           value/Å
     1   8 O        4   6 C                                       1.3778633
     2   8 O        4   6 C                                       1.1885548
     1   8 O        5   6 C                                       1.3778635 (max)
     3   8 O        5   6 C                                       1.1885557
     6   6 C        8   1 H                                       1.0854051
     6   6 C        9   1 H                                       1.0874056
     6   6 C       10   1 H                                       1.0872455
     7   6 C       11   1 H                                       1.0872562
     7   6 C       12   1 H                                       1.0854041 (min)
     7   6 C       13   1 H                                       1.0873954

 * 2 distinct bonds (by element types)

   Z      Z             #   av. dist./Å        max./Å        min./Å
   1 H    6 C           6     1.0866853     1.0874056     1.0854041
   6 C    8 O           4     1.2832093     1.3778635     1.1885548


optimized geometry written to: xtbopt.xyz


           -------------------------------------------------
          | TOTAL ENERGY              -23.830979371209 Eh   |
          | GRADIENT NORM               0.000690414430 Eh/α |
          | HOMO-LUMO GAP               3.995225977449 eV   |
           -------------------------------------------------

------------------------------------------------------------------------
 * finished run on 2026/06/07 at 13:50:40.247     
------------------------------------------------------------------------
 total:
 * wall-time:     0 d,  0 h,  0 min,  0.183 sec
 *  cpu-time:     0 d,  0 h,  0 min,  2.810 sec
 * ratio c/w:    15.345 speedup
 SCF:
 * wall-time:     0 d,  0 h,  0 min,  0.046 sec
 *  cpu-time:     0 d,  0 h,  0 min,  0.692 sec
 * ratio c/w:    15.089 speedup
 ANC optimizer:
 * wall-time:     0 d,  0 h,  0 min,  0.112 sec
 *  cpu-time:     0 d,  0 h,  0 min,  1.732 sec
 * ratio c/w:    15.522 speedup

