13
 energy: -23.830979371209 gnorm: 0.000690414430 xtb: 6.7.1 (edcfbbe)
O           -0.00002379755765        0.56630078832438       -0.00005966382791
O            1.35479116826751       -1.26420141841696       -0.00284727980413
O           -1.35477392481168       -1.26425084027958        0.00264528492971
C            1.21476478496330       -0.08392464407160       -0.00161177456153
C           -1.21478927697938       -0.08396802076453        0.00157156441846
C            2.30844761785848        0.94559983819904        0.00132569931332
C           -2.30851000190071        0.94551793011075       -0.00095117374177
H            3.27435492421574        0.45056947006388       -0.00716681550350
H            2.21612065275411        1.56905027096052        0.88746108011171
H            2.20739251346983        1.58392594596430       -0.87299133912994
H           -2.20899357576732        1.58164213737582        0.87515858806209
H           -3.27440898782444        0.45043414046083        0.00480345229439
H           -2.21467209668779        1.57120440207315       -0.88533762256088
