      -----------------------------------------------------------      
     |                   =====================                   |     
     |                           x T B                           |     
     |                   =====================                   |     
     |                         S. Grimme                         |     
     |          Mulliken Center for Theoretical Chemistry        |     
     |                    University of Bonn                     |     
      -----------------------------------------------------------      

   * xtb version 6.7.1 (edcfbbe) compiled by 'conda@c0858423619e' on 2025-09-04

   xtb is free software: you can redistribute it and/or modify it under
   the terms of the GNU Lesser General Public License as published by
   the Free Software Foundation, either version 3 of the License, or
   (at your option) any later version.
   
   xtb is distributed in the hope that it will be useful,
   but WITHOUT ANY WARRANTY; without even the implied warranty of
   MERCHANTABILITY or FITNESS FOR A PARTICULAR PURPOSE.  See the
   GNU Lesser General Public License for more details.
   
   Cite this work as:
   * C. Bannwarth, E. Caldeweyher, S. Ehlert, A. Hansen, P. Pracht,
     J. Seibert, S. Spicher, S. Grimme, WIREs Comput. Mol. Sci., 2020, 11,
     e01493. DOI: 10.1002/wcms.1493
   
   for GFN2-xTB:
   * C. Bannwarth, S. Ehlert and S. Grimme., J. Chem. Theory Comput., 2019,
     15, 1652-1671. DOI: 10.1021/acs.jctc.8b01176
   for GFN1-xTB:
   * S. Grimme, C. Bannwarth, P. Shushkov, J. Chem. Theory Comput., 2017,
     13, 1989-2009. DOI: 10.1021/acs.jctc.7b00118
   for GFN0-xTB:
   * P. Pracht, E. Caldeweyher, S. Ehlert, S. Grimme, ChemRxiv, 2019, preprint.
     DOI: 10.26434/chemrxiv.8326202.v1
   for GFN-FF:
   * S. Spicher and S. Grimme, Angew. Chem. Int. Ed., 2020, 59, 15665-15673.
     DOI: 10.1002/anie.202004239
   
   for ALPB and GBSA implicit solvation:
   * S. Ehlert, M. Stahn, S. Spicher, S. Grimme, J. Chem. Theory Comput.,
     2021, 17, 4250-4261. DOI: 10.1021/acs.jctc.1c00471
   
   for ddCOSMO and CPCM-X implicit solvation:
   * M. Stahn, S. Ehlert, S. Grimme, J. Phys. Chem. A,
     2023, XX, XXXX-XXXX. DOI: 10.1021/acs.jpca.3c04382
   
   for DFT-D4:
   * E. Caldeweyher, C. Bannwarth and S. Grimme, J. Chem. Phys., 2017,
     147, 034112. DOI: 10.1063/1.4993215
   * E. Caldeweyher, S. Ehlert, A. Hansen, H. Neugebauer, S. Spicher,
     C. Bannwarth and S. Grimme, J. Chem. Phys., 2019, 150, 154122.
     DOI: 10.1063/1.5090222
   * E. Caldeweyher, J.-M. Mewes, S. Ehlert and S. Grimme, Phys. Chem. Chem. Phys.
     2020, 22, 8499-8512. DOI: 10.1039/D0CP00502A
   
   for sTDA-xTB:
   * S. Grimme and C. Bannwarth, J. Chem. Phys., 2016, 145, 054103.
     DOI: 10.1063/1.4959605
   
   in the mass-spec context:
   * V. Asgeirsson, C. Bauer and S. Grimme, Chem. Sci., 2017, 8, 4879.
     DOI: 10.1039/c7sc00601b
   * J. Koopman and S. Grimme, ACS Omega 2019, 4, 12, 15120-15133.
     DOI: 10.1021/acsomega.9b02011
   
   for metadynamics refer to:
   * S. Grimme, J. Chem. Theory Comput., 2019, 155, 2847-2862
     DOI: 10.1021/acs.jctc.9b00143
   
   for SPH calculations refer to:
   * S. Spicher and S. Grimme, J. Chem. Theory Comput., 2021, 17, 1701-1714
     DOI: 10.1021/acs.jctc.0c01306
   
   for ONIOM refer to:
   * C. Plett, A. Katbashev, S. Ehlert, S. Grimme, M. Bursch,
     Phys. Chem. Chem. Phys., 2023, 25, 17860-17868. DOI: 10.1039/D3CP02178E
   
   for DIPRO refer to:
   * J. Kohn, N. Gildemeister, S. Grimme, D. Fazzi, A. Hansen,
     J. Chem. Phys., 2023, just accepted.
   
   for PTB refer to:
   * S. Grimme, M. Mueller, A. Hansen, J. Chem. Phys., 2023, 158, 124111.
     DOI: 10.1063/5.0137838
   
   with help from (in alphabetical order)
   P. Atkinson, C. Bannwarth, F. Bohle, G. Brandenburg, E. Caldeweyher
   M. Checinski, S. Dohm, S. Ehlert, S. Ehrlich, I. Gerasimov, C. Hölzer
   A. Katbashev, J. Kohn, J. Koopman, C. Lavigne, S. Lehtola, F. März, M. Müller,
   F. Musil, H. Neugebauer, J. Pisarek, C. Plett, P. Pracht, F. Pultar,
   J. Seibert, P. Shushkov, S. Spicher, M. Stahn, M. Steiner, T. Strunk,
   J. Stückrath, T. Rose, and J. Unsleber
   
 * started run on 2026/06/07 at 14:02:16.085     
   ID    Z sym.   atoms
    1    8 O      1-3
    2    6 C      4-7
    3    1 H      8-13

           -------------------------------------------------
          |                Calculation Setup                |
           -------------------------------------------------

          program call               : xtb acetic_anhydride.xyz --opt --alpb water
          hostname                   : fedora
          coordinate file            : acetic_anhydride.xyz
          omp threads                :                    16


           -------------------------------------------------
          |                 G F N 2 - x T B                 |
           -------------------------------------------------

        Reference                      10.1021/acs.jctc.8b01176
      * Hamiltonian:
        H0-scaling (s, p, d)           1.850000    2.230000    2.230000
        zeta-weighting                 0.500000
      * Dispersion:
        s8                             2.700000
        a1                             0.520000
        a2                             5.000000
        s9                             5.000000
      * Repulsion:
        kExp                           1.500000    1.000000
        rExp                           1.000000
      * Coulomb:
        alpha                          2.000000
        third order                    shell-resolved
        anisotropic                    true
        a3                             3.000000
        a5                             4.000000
        cn-shift                       1.200000
        cn-exp                         4.000000
        max-rad                        5.000000

      * Solvation model:               ALPB
        Solvent                        water
        Parameter file                 internal GFN2-xTB/ALPB
        Dielectric constant                8.0200E+01
        Reference state                gsolv [1 M gas/solution]
        Free energy shift                  1.0808E-03 Eh       6.7819E-01 kcal/mol
        Temperature                        2.9815E+02 K
        Density                            1.0000E+00 kg/L
        Solvent mass                       1.8000E+01 g/mol
        Interaction kernel             P16
        Born radius scaling (c1)           1.4744E+00
        Born radii integrator          GBOBC
        Born offset                        0.0000E+00 a0       0.0000E+00 AA
        H-bond correction              true
        Ion screening                  false
        Surface tension                    1.0000E-05 Eh       1.5569E+01 dyn/cm
        Grid points                               230 per atom

          ...................................................
          :                      SETUP                      :
          :.................................................:
          :  # basis functions                  34          :
          :  # atomic orbitals                  34          :
          :  # shells                           20          :
          :  # electrons                        40          :
          :  max. iterations                   250          :
          :  Hamiltonian                  GFN2-xTB          :
          :  restarted?                      false          :
          :  GBSA solvation                   true          :
          :  PC potential                    false          :
          :  electronic temp.          300.0000000     K    :
          :  accuracy                    1.0000000          :
          :  -> integral cutoff          0.2500000E+02      :
          :  -> integral neglect         0.1000000E-07      :
          :  -> SCF convergence          0.1000000E-05 Eh   :
          :  -> wf. convergence          0.1000000E-03 e    :
          :  Broyden damping             0.4000000          :
          :  net charge                          0          :
          :  unpaired electrons                  0          :
          ...................................................

 iter      E             dE          RMSdq      gap      omega  full diag
   1    -23.9653702 -0.239654E+02  0.551E+00    4.52       0.0  T
   2    -24.0476962 -0.823260E-01  0.262E+00    3.39       1.0  T
   3    -24.0526691 -0.497295E-02  0.155E+00    3.77       1.0  T
   4    -24.0551163 -0.244716E-02  0.192E-01    3.57       1.0  T
   5    -24.0553666 -0.250307E-03  0.647E-02    3.62       1.0  T
   6    -24.0553663  0.271716E-06  0.283E-02    3.61       1.0  T
   7    -24.0553700 -0.370087E-05  0.754E-03    3.61       3.7  T
   8    -24.0553704 -0.368877E-06  0.290E-03    3.61       9.6  T
   9    -24.0553705 -0.442778E-07  0.425E-04    3.61      65.3  T
  10    -24.0553705 -0.117341E-08  0.138E-04    3.61     200.4  T

   *** convergence criteria satisfied after 10 iterations ***

         #    Occupation            Energy/Eh            Energy/eV
      -------------------------------------------------------------
         1        2.0000           -0.7813730             -21.2622
       ...           ...                  ...                  ...
        14        2.0000           -0.5021912             -13.6653
        15        2.0000           -0.4911099             -13.3638
        16        2.0000           -0.4851337             -13.2012
        17        2.0000           -0.4843174             -13.1789
        18        2.0000           -0.4768627             -12.9761
        19        2.0000           -0.4561964             -12.4137
        20        2.0000           -0.4248772             -11.5615 (HOMO)
        21                         -0.2921628              -7.9502 (LUMO)
        22                         -0.2397466              -6.5238
        23                          0.0205461               0.5591
        24                          0.1308135               3.5596
        25                          0.1443673               3.9284
       ...                                ...                  ...
        34                          0.6120063              16.6535
      -------------------------------------------------------------
                  HL-Gap            0.1327143 Eh            3.6113 eV
             Fermi-level           -0.3585200 Eh           -9.7558 eV

 SCC (total)                   0 d,  0 h,  0 min,  0.205 sec
 SCC setup                      ...        0 min,  0.001 sec (  0.343%)
 Dispersion                     ...        0 min,  0.001 sec (  0.404%)
 classical contributions        ...        0 min,  0.000 sec (  0.136%)
 integral evaluation            ...        0 min,  0.006 sec (  2.695%)
 iterations                     ...        0 min,  0.189 sec ( 92.465%)
 molecular gradient             ...        0 min,  0.008 sec (  3.890%)
 printout                       ...        0 min,  0.000 sec (  0.049%)

         :::::::::::::::::::::::::::::::::::::::::::::::::::::
         ::                     SUMMARY                     ::
         :::::::::::::::::::::::::::::::::::::::::::::::::::::
         :: total energy             -23.837471537972 Eh    ::
         :: total w/o Gsasa/hb       -23.837531810048 Eh    ::
         :: gradient norm              0.076391189039 Eh/a0 ::
         :: HOMO-LUMO gap              3.611340176318 eV    ::
         ::.................................................::
         :: SCC energy               -24.055363082727 Eh    ::
         :: -> isotropic ES            0.093748709868 Eh    ::
         :: -> anisotropic ES         -0.001793434495 Eh    ::
         :: -> anisotropic XC          0.003481908549 Eh    ::
         :: -> dispersion             -0.006740538733 Eh    ::
         :: -> Gsolv                  -0.019495667378 Eh    ::
         ::    -> Gelec               -0.019555939454 Eh    ::
         ::    -> Gsasa                0.003610488359 Eh    ::
         ::    -> Ghb                 -0.004630975981 Eh    ::
         ::    -> Gshift               0.001080759698 Eh    ::
         :: repulsion energy           0.217891544755 Eh    ::
         :: add. restraining           0.000000000000 Eh    ::
         :: total charge               0.000000000000 e     ::
         :::::::::::::::::::::::::::::::::::::::::::::::::::::

      ----------------------------------------------------------- 
     |                   =====================                   |
     |                        A N C O P T                        |
     |                   =====================                   |
     |               Approximate Normal Coordinate               |
     |                Rational Function Optimizer                |
      ----------------------------------------------------------- 
      ----------------------------------------------------------- 
     |                   =====================                   |
     |                        A N C O P T                        |
     |                   =====================                   |
     |               Approximate Normal Coordinate               |
     |                Rational Function Optimizer                |
      ----------------------------------------------------------- 

          ...................................................
          :                      SETUP                      :
          :.................................................:
          :   optimization level            normal          :
          :   max. optcycles                   200          :
          :   ANC micro-cycles                  20          :
          :   degrees of freedom                33          :
          :.................................................:
          :   RF solver                   davidson          :
          :   write xtbopt.log                true          :
          :   linear?                        false          :
          :   energy convergence         0.5000000E-05 Eh   :
          :   grad. convergence          0.1000000E-02 Eh/α :
          :   maxmium RF displ.          1.0000000          :
          :   Hlow (freq-cutoff)         0.1000000E-01      :
          :   Hmax (freq-cutoff)         5.0000000          :
          :   S6 in model hess.         20.0000000          :
          ...................................................

generating ANC from exact Hessian ...
Using Lindh-Hessian (1995)
 Shifting diagonal of input Hessian by    6.0876915082960720E-003
 Lowest  eigenvalues of input Hessian
    0.000000    0.000000    0.000000    0.000000    0.000000    0.000000
    0.010000    0.010363    0.015754    0.018935    0.037090    0.043956
    0.045460    0.054232    0.073358    0.079657    0.083487    0.109902
 Highest eigenvalues
    1.127733    1.148984    1.422625    1.746751    2.274483    2.289880


........................................................................
.............................. CYCLE    1 ..............................
........................................................................

 iter      E             dE          RMSdq      gap      omega  full diag
   1    -24.0553705 -0.240554E+02  0.104E-05    3.61       0.0  T
   2    -24.0553705 -0.959233E-13  0.558E-06    3.61    4972.4  T
   3    -24.0553705 -0.106581E-13  0.335E-06    3.61    8279.3  T
     SCC iter.                  ...        0 min,  0.036 sec
     gradient                   ...        0 min,  0.006 sec
 * total energy  :   -23.8374715 Eh     change       -0.9583445E-10 Eh
   gradient norm :     0.0763944 Eh/α   predicted     0.0000000E+00 (-100.00%)
   displ. norm   :     0.1518869 α      lambda       -0.7083421E-02
   maximum displ.:     0.0842107 α      in ANC's #3, #23, #16, ...

........................................................................
.............................. CYCLE    2 ..............................
........................................................................

 iter      E             dE          RMSdq      gap      omega  full diag
   1    -24.0756655 -0.240757E+02  0.244E-01    3.83       0.0  T
   2    -24.0758029 -0.137445E-03  0.139E-01    3.82       1.0  T
   3    -24.0758070 -0.408207E-05  0.676E-02    3.83       1.0  T
   4    -24.0758086 -0.159853E-05  0.145E-02    3.82       1.9  T
   5    -24.0758101 -0.147258E-05  0.451E-03    3.82       6.1  T
   6    -24.0758101 -0.979208E-08  0.212E-03    3.82      13.1  T
   7    -24.0758101 -0.218575E-08  0.260E-04    3.82     106.7  T
   8    -24.0758101 -0.500471E-10  0.394E-05    3.82     703.1  T
     SCC iter.                  ...        0 min,  0.008 sec
     gradient                   ...        0 min,  0.006 sec
 * total energy  :   -23.8421222 Eh     change       -0.4650630E-02 Eh
   gradient norm :     0.0253864 Eh/α   predicted    -0.3623415E-02 ( -22.09%)
   displ. norm   :     0.1463458 α      lambda       -0.1552265E-02
   maximum displ.:     0.1282055 α      in ANC's #3, #23, #12, ...

........................................................................
.............................. CYCLE    3 ..............................
........................................................................

 iter      E             dE          RMSdq      gap      omega  full diag
   1    -24.0814921 -0.240815E+02  0.130E-01    3.91       0.0  T
   2    -24.0815337 -0.416397E-04  0.715E-02    3.91       1.0  T
   3    -24.0815353 -0.154819E-05  0.337E-02    3.91       1.0  T
   4    -24.0815354 -0.115738E-06  0.488E-03    3.91       5.7  T
   5    -24.0815355 -0.116698E-06  0.221E-03    3.91      12.5  T
   6    -24.0815355 -0.179753E-08  0.418E-04    3.91      66.3  T
   7    -24.0815355 -0.543459E-10  0.133E-04    3.91     207.8  T
     SCC iter.                  ...        0 min,  0.007 sec
     gradient                   ...        0 min,  0.006 sec
 * total energy  :   -23.8430316 Eh     change       -0.9093861E-03 Eh
   gradient norm :     0.0103551 Eh/α   predicted    -0.7927547E-03 ( -12.83%)
   displ. norm   :     0.1037900 α      lambda       -0.2256908E-03
   maximum displ.:     0.1020752 α      in ANC's #3, #23, #30, ...

........................................................................
.............................. CYCLE    4 ..............................
........................................................................

 iter      E             dE          RMSdq      gap      omega  full diag
   1    -24.0808671 -0.240809E+02  0.427E-02    3.92       0.0  T
   2    -24.0808711 -0.396906E-05  0.246E-02    3.92       1.1  T
   3    -24.0808712 -0.174545E-06  0.100E-02    3.92       2.8  T
   4    -24.0808713 -0.321291E-07  0.286E-03    3.92       9.7  T
   5    -24.0808713 -0.287194E-07  0.989E-04    3.92      28.0  T
   6    -24.0808713 -0.101776E-08  0.331E-04    3.92      83.8  T
     SCC iter.                  ...        0 min,  0.007 sec
     gradient                   ...        0 min,  0.006 sec
 * total energy  :   -23.8431853 Eh     change       -0.1537297E-03 Eh
   gradient norm :     0.0039805 Eh/α   predicted    -0.1140598E-03 ( -25.80%)
   displ. norm   :     0.0998181 α      lambda       -0.9866731E-04
   maximum displ.:     0.0983960 α      in ANC's #3, #9, #4, ...

........................................................................
.............................. CYCLE    5 ..............................
........................................................................

 iter      E             dE          RMSdq      gap      omega  full diag
   1    -24.0802368 -0.240802E+02  0.396E-02    3.92       0.0  T
   2    -24.0802379 -0.106933E-05  0.231E-02    3.92       1.2  T
   3    -24.0802379 -0.467644E-07  0.503E-03    3.92       5.5  T
   4    -24.0802380 -0.340969E-07  0.145E-03    3.92      19.1  T
   5    -24.0802380 -0.847010E-08  0.702E-04    3.92      39.5  T
   6    -24.0802380 -0.516135E-09  0.239E-04    3.92     115.9  T
     SCC iter.                  ...        0 min,  0.006 sec
     gradient                   ...        0 min,  0.006 sec
 * total energy  :   -23.8432399 Eh     change       -0.5461040E-04 Eh
   gradient norm :     0.0020714 Eh/α   predicted    -0.4982354E-04 (  -8.77%)
   displ. norm   :     0.0294832 α      lambda       -0.1794855E-04
   maximum displ.:     0.0265493 α      in ANC's #3, #4, #6, ...

........................................................................
.............................. CYCLE    6 ..............................
........................................................................

 iter      E             dE          RMSdq      gap      omega  full diag
   1    -24.0804812 -0.240805E+02  0.167E-02    3.93       0.0  T
   2    -24.0804812 -0.320542E-07  0.100E-02    3.92       2.8  T
   3    -24.0804812 -0.933404E-09  0.912E-04    3.93      30.4  T
   4    -24.0804812 -0.486079E-08  0.375E-04    3.92      73.9  T
     SCC iter.                  ...        0 min,  0.003 sec
     gradient                   ...        0 min,  0.006 sec
 * total energy  :   -23.8432488 Eh     change       -0.8910253E-05 Eh
   gradient norm :     0.0015885 Eh/α   predicted    -0.8980051E-05 (   0.78%)
   displ. norm   :     0.0165063 α      lambda       -0.4350385E-05
   maximum displ.:     0.0143896 α      in ANC's #3, #4, #6, ...

........................................................................
.............................. CYCLE    7 ..............................
........................................................................

 iter      E             dE          RMSdq      gap      omega  full diag
   1    -24.0808931 -0.240809E+02  0.979E-03    3.93       0.0  T
   2    -24.0808932 -0.980108E-07  0.600E-03    3.93       4.6  T
   3    -24.0808932  0.222990E-09  0.169E-03    3.93      16.4  T
   4    -24.0808932 -0.564129E-08  0.375E-04    3.93      73.9  T
   5    -24.0808932 -0.613163E-09  0.155E-04    3.93     179.0  T
     SCC iter.                  ...        0 min,  0.068 sec
     gradient                   ...        0 min,  0.004 sec
 * total energy  :   -23.8432515 Eh     change       -0.2734386E-05 Eh
   gradient norm :     0.0005041 Eh/α   predicted    -0.2175024E-05 ( -20.46%)
   displ. norm   :     0.0037027 α      lambda       -0.5147373E-06
   maximum displ.:     0.0029056 α      in ANC's #3, #1, #16, ...

   *** GEOMETRY OPTIMIZATION CONVERGED AFTER 7 ITERATIONS ***

------------------------------------------------------------------------
 total energy gain   :        -0.0057800 Eh       -3.6270 kcal/mol
 total RMSD          :         0.1364806 a0        0.0722 Å
 total power (kW/mol):        -2.1679130 (step)  -72.4624 (real)
------------------------------------------------------------------------

 ANCopt (total)                0 d,  0 h,  0 min,  0.209 sec
 optimizer setup                ...        0 min,  0.000 sec (  0.036%)
 model hessian                  ...        0 min,  0.001 sec (  0.400%)
 ANC generation                 ...        0 min,  0.005 sec (  2.588%)
 coordinate transformation      ...        0 min,  0.000 sec (  0.030%)
 single point calculation       ...        0 min,  0.199 sec ( 95.062%)
 optimization log               ...        0 min,  0.001 sec (  0.395%)
 hessian update                 ...        0 min,  0.001 sec (  0.439%)
 rational function              ...        0 min,  0.001 sec (  0.441%)

================
 final structure:
================
13
 xtb: 6.7.1 (edcfbbe)
O           -0.00002372205363        0.56242624958164       -0.00002671146508
O            1.34809258014806       -1.26646230305064       -0.00173159798425
O           -1.34807556687111       -1.26651079016210        0.00144194471752
C            1.21790857199171       -0.07327268673726       -0.00085226507127
C           -1.21793320343747       -0.07331581378706        0.00082531680996
C            2.30586976617693        0.94352157802933        0.00111206843612
C           -2.30593215478310        0.94343939084877       -0.00074211252642
H            3.27002674470447        0.44676977390619       -0.00671714044702
H            2.20750494225789        1.56955933117884        0.88452641213278
H            2.19893896523545        1.58284028476457       -0.87155475907395
H           -2.20049766391144        1.58061349724385        0.87368727233417
H           -3.27008007542454        0.44663669669265        0.00446333592916
H           -2.20609918403323        1.57165479149124       -0.88243176379171

 Bond Distances (Angstroems)
 ---------------------------
O1-C4=1.3739         O1-C5=1.3739         O2-C4=1.2003         O3-C5=1.2003         C4-O1=1.3739         C4-O2=1.2003         
C4-C6=1.4891         C5-O1=1.3739         C5-O3=1.2003         C5-C7=1.4891         C6-C4=1.4891         C6-H8=1.0846         
C6-H9=1.0872         C6-H10=1.0871        C7-C5=1.4891         C7-H11=1.0871        C7-H12=1.0846        C7-H13=1.0872        
H8-C6=1.0846         H9-C6=1.0872         H10-C6=1.0871        H11-C7=1.0871        H12-C7=1.0846        H13-C7=1.0872        
 C  H  Rav=1.0863 sigma=0.0012  Rmin=1.0846  Rmax=1.0872     6
 C  C  Rav=1.4891 sigma=0.0000  Rmin=1.4891  Rmax=1.4891     2
 O  C  Rav=1.2871 sigma=0.0868  Rmin=1.2003  Rmax=1.3739     4

 selected bond angles (degree)
 --------------------
C5-O1-C4=124.87                O2-C4-O1=123.79                C6-C4-O1=109.37                C6-C4-O2=126.84                
O3-C5-O1=123.79                C7-C5-O1=109.37                C7-C5-O3=126.84                H8-C6-C4=109.68                
H9-C6-C4=109.16                H9-C6-H8=110.49                H10-C6-C4=109.19               H10-C6-H8=110.55               
H10-C6-H9=107.74               H11-C7-C5=109.18               H12-C7-C5=109.68               H12-C7-H11=110.54              
H13-C7-C5=109.17               H13-C7-H11=107.74              H13-C7-H12=110.50              

 selected dihedral angles (degree)
 ---------------------------------
O2-C4-O1-C5=  0.05            C6-C4-O1-C5=180.11            O3-C5-O1-C4=  0.03            C7-C5-O1-C4=180.09            
H8-C6-C4-O1=180.40            H8-C6-C4-O2=  0.47            H9-C6-C4-O1= 59.22            H9-C6-C4-O2=239.29            
H10-C6-C4-O1=301.68           H10-C6-C4-O2=121.74           H11-C7-C5-O1=301.51           H11-C7-C5-O3=121.58           
H12-C7-C5-O1=180.25           H12-C7-C5-O3=  0.32           H13-C7-C5-O1= 59.06           H13-C7-C5-O3=239.12           
           -------------------------------------------------
          |                Final Singlepoint                |
           -------------------------------------------------

          ...................................................
          :                      SETUP                      :
          :.................................................:
          :  # basis functions                  34          :
          :  # atomic orbitals                  34          :
          :  # shells                           20          :
          :  # electrons                        40          :
          :  max. iterations                   250          :
          :  Hamiltonian                  GFN2-xTB          :
          :  restarted?                      false          :
          :  GBSA solvation                   true          :
          :  PC potential                    false          :
          :  electronic temp.          300.0000000     K    :
          :  accuracy                    1.0000000          :
          :  -> integral cutoff          0.2500000E+02      :
          :  -> integral neglect         0.1000000E-07      :
          :  -> SCF convergence          0.1000000E-05 Eh   :
          :  -> wf. convergence          0.1000000E-03 e    :
          :  Broyden damping             0.4000000          :
          :  net charge                          0          :
          :  unpaired electrons                  0          :
          ...................................................

 iter      E             dE          RMSdq      gap      omega  full diag
   1    -24.0808932 -0.240809E+02  0.508E-05    3.93       0.0  T
   2    -24.0808932 -0.125411E-11  0.295E-05    3.93     940.4  T
   3    -24.0808932 -0.135003E-12  0.815E-06    3.93    3403.0  T

   *** convergence criteria satisfied after 3 iterations ***

         #    Occupation            Energy/Eh            Energy/eV
      -------------------------------------------------------------
         1        2.0000           -0.7733668             -21.0444
       ...           ...                  ...                  ...
        14        2.0000           -0.4992893             -13.5864
        15        2.0000           -0.4929879             -13.4149
        16        2.0000           -0.4839066             -13.1678
        17        2.0000           -0.4835300             -13.1575
        18        2.0000           -0.4803583             -13.0712
        19        2.0000           -0.4574169             -12.4469
        20        2.0000           -0.4277483             -11.6396 (HOMO)
        21                         -0.2834453              -7.7129 (LUMO)
        22                         -0.2296904              -6.2502
        23                          0.0035383               0.0963
        24                          0.1508845               4.1058
        25                          0.1621491               4.4123
       ...                                ...                  ...
        34                          0.6673364              18.1591
      -------------------------------------------------------------
                  HL-Gap            0.1443030 Eh            3.9267 eV
             Fermi-level           -0.3555968 Eh           -9.6763 eV

 SCC (total)                   0 d,  0 h,  0 min,  0.040 sec
 SCC setup                      ...        0 min,  0.002 sec (  5.789%)
 Dispersion                     ...        0 min,  0.000 sec (  0.564%)
 classical contributions        ...        0 min,  0.002 sec (  6.011%)
 integral evaluation            ...        0 min,  0.001 sec (  3.269%)
 iterations                     ...        0 min,  0.030 sec ( 74.654%)
 molecular gradient             ...        0 min,  0.004 sec (  9.286%)
 printout                       ...        0 min,  0.000 sec (  0.311%)

         :::::::::::::::::::::::::::::::::::::::::::::::::::::
         ::                     SUMMARY                     ::
         :::::::::::::::::::::::::::::::::::::::::::::::::::::
         :: total energy             -23.843251539171 Eh    ::
         :: total w/o Gsasa/hb       -23.843172605133 Eh    ::
         :: gradient norm              0.000504269978 Eh/a0 ::
         :: HOMO-LUMO gap              3.926685462703 eV    ::
         ::.................................................::
         :: SCC energy               -24.080884903035 Eh    ::
         :: -> isotropic ES            0.094169477956 Eh    ::
         :: -> anisotropic ES         -0.003506856859 Eh    ::
         :: -> anisotropic XC          0.002599100613 Eh    ::
         :: -> dispersion             -0.006720909193 Eh    ::
         :: -> Gsolv                  -0.019515753289 Eh    ::
         ::    -> Gelec               -0.019436819251 Eh    ::
         ::    -> Gsasa                0.003574616253 Eh    ::
         ::    -> Ghb                 -0.004734309989 Eh    ::
         ::    -> Gshift               0.001080759698 Eh    ::
         :: repulsion energy           0.237633363864 Eh    ::
         :: add. restraining           0.000000000000 Eh    ::
         :: total charge               0.000000000000 e     ::
         :::::::::::::::::::::::::::::::::::::::::::::::::::::

           -------------------------------------------------
          |                Property Printout                |
           -------------------------------------------------

    * Orbital Energies and Occupations

         #    Occupation            Energy/Eh            Energy/eV
      -------------------------------------------------------------
         1        2.0000           -0.7733668             -21.0444
       ...           ...                  ...                  ...
         8        2.0000           -0.6180507             -16.8180
         9        2.0000           -0.5803348             -15.7917
        10        2.0000           -0.5709618             -15.5367
        11        2.0000           -0.5658526             -15.3976
        12        2.0000           -0.5368788             -14.6092
        13        2.0000           -0.5056567             -13.7596
        14        2.0000           -0.4992893             -13.5864
        15        2.0000           -0.4929879             -13.4149
        16        2.0000           -0.4839066             -13.1678
        17        2.0000           -0.4835300             -13.1575
        18        2.0000           -0.4803583             -13.0712
        19        2.0000           -0.4574169             -12.4469
        20        2.0000           -0.4277483             -11.6396 (HOMO)
        21                         -0.2834453              -7.7129 (LUMO)
        22                         -0.2296904              -6.2502
        23                          0.0035383               0.0963
        24                          0.1508845               4.1058
        25                          0.1621491               4.4123
        26                          0.1640792               4.4648
        27                          0.1642945               4.4707
        28                          0.1870714               5.0905
        29                          0.2139126               5.8209
        30                          0.2153855               5.8609
        31                          0.2399887               6.5304
       ...                                ...                  ...
        34                          0.6673364              18.1591
      -------------------------------------------------------------
                  HL-Gap            0.1443030 Eh            3.9267 eV
             Fermi-level           -0.3555968 Eh           -9.6763 eV

     #   Z          covCN         q      C6AA      α(0)
     1   8 O        1.709    -0.268    18.434     5.797
     2   8 O        0.856    -0.425    22.192     6.316
     3   8 O        0.856    -0.425    22.192     6.316
     4   6 C        2.696     0.379    20.584     7.425
     5   6 C        2.696     0.379    20.584     7.425
     6   6 C        3.755    -0.182    24.110     7.001
     7   6 C        3.755    -0.182    24.110     7.001
     8   1 H        0.925     0.105     1.743     2.065
     9   1 H        0.925     0.129     1.545     1.944
    10   1 H        0.925     0.128     1.547     1.945
    11   1 H        0.925     0.128     1.547     1.945
    12   1 H        0.925     0.105     1.743     2.065
    13   1 H        0.925     0.129     1.545     1.944

 Mol. C6AA /au·bohr⁶  :       1607.414774
 Mol. C8AA /au·bohr⁸  :      35765.428528
 Mol. α(0) /au        :         59.189557


Wiberg/Mayer (AO) data.
largest (>0.10) Wiberg bond orders for each atom

 ---------------------------------------------------------------------------
     #   Z sym  total        # sym  WBO       # sym  WBO       # sym  WBO
 ---------------------------------------------------------------------------
     1   8 O    2.357 --     5 C    1.024     4 C    1.024     2 O    0.127
                             3 O    0.127
     2   8 O    2.048 --     4 C    1.784     1 O    0.127
     3   8 O    2.048 --     5 C    1.784     1 O    0.127
     4   6 C    3.887 --     2 O    1.784     1 O    1.024     6 C    1.016
     5   6 C    3.887 --     3 O    1.784     1 O    1.024     7 C    1.016
     6   6 C    3.973 --     4 C    1.016     8 H    0.976    10 H    0.942
                             9 H    0.941
     7   6 C    3.973 --     5 C    1.016    12 H    0.976    11 H    0.941
                            13 H    0.941
     8   1 H    0.988 --     6 C    0.976
     9   1 H    0.983 --     6 C    0.941
    10   1 H    0.984 --     6 C    0.942
    11   1 H    0.983 --     7 C    0.941
    12   1 H    0.988 --     7 C    0.976
    13   1 H    0.983 --     7 C    0.941
 ---------------------------------------------------------------------------

Topologies differ in total number of bonds
Writing topology from bond orders to xtbtopo.mol

molecular dipole:
                 x           y           z       tot (Debye)
 q only:       -0.000       2.707       0.001
   full:       -0.000       2.761       0.001       7.019
molecular quadrupole (traceless):
                xx          xy          yy          xz          yz          zz
 q only:        8.595       0.000      -6.561       0.027       0.001      -2.034
  q+dip:        7.104       0.000      -7.746       0.031       0.001       0.642
   full:        6.855       0.000      -8.603       0.030       0.001       1.748

           -------------------------------------------------
          |                Geometry Summary                 |
           -------------------------------------------------

      molecular mass/u    :      102.0888029
   center of mass at/Å    :       -0.0000133      -0.0330025       0.0000103
  moments of inertia/u·Å² :        0.9131460E+02   0.2657474E+03   0.3508446E+03
rotational constants/cm⁻¹ :        0.1846105E+00   0.6343479E-01   0.4804871E-01

 * 10 selected distances

     #   Z          #   Z                                           value/Å
     1   8 O        4   6 C                                       1.3738534 (max)
     2   8 O        4   6 C                                       1.2002710
     1   8 O        5   6 C                                       1.3738532
     3   8 O        5   6 C                                       1.2002716
     6   6 C        8   1 H                                       1.0846301
     6   6 C        9   1 H                                       1.0872074
     6   6 C       10   1 H                                       1.0870650
     7   6 C       11   1 H                                       1.0870760
     7   6 C       12   1 H                                       1.0846296 (min)
     7   6 C       13   1 H                                       1.0871973

 * 2 distinct bonds (by element types)

   Z      Z             #   av. dist./Å        max./Å        min./Å
   1 H    6 C           6     1.0863009     1.0872074     1.0846296
   6 C    8 O           4     1.2870623     1.3738534     1.2002710


optimized geometry written to: xtbopt.xyz


           -------------------------------------------------
          | TOTAL ENERGY              -23.843251539171 Eh   |
          | GRADIENT NORM               0.000504269978 Eh/α |
          | HOMO-LUMO GAP               3.926685462703 eV   |
           -------------------------------------------------

------------------------------------------------------------------------
 * finished run on 2026/06/07 at 14:02:16.567     
------------------------------------------------------------------------
 total:
 * wall-time:     0 d,  0 h,  0 min,  0.482 sec
 *  cpu-time:     0 d,  0 h,  0 min,  7.044 sec
 * ratio c/w:    14.622 speedup
 SCF:
 * wall-time:     0 d,  0 h,  0 min,  0.205 sec
 *  cpu-time:     0 d,  0 h,  0 min,  2.986 sec
 * ratio c/w:    14.559 speedup
 ANC optimizer:
 * wall-time:     0 d,  0 h,  0 min,  0.251 sec
 *  cpu-time:     0 d,  0 h,  0 min,  3.679 sec
 * ratio c/w:    14.663 speedup

