13
Properties=species:S:1:pos:R:3 pbc="F F F"
O        0.00000000       0.67870000      -0.00040000
O        1.30550000      -1.24450000      -0.00130000
O       -1.30550000      -1.24450000       0.00150000
C        1.16870000      -0.02870000      -0.00150000
C       -1.16870000      -0.02870000       0.00100000
C        2.31950000       0.93390000       0.00170000
C       -2.31960000       0.93380000      -0.00110000
H        3.25990000       0.37510000      -0.00780000
H        2.28800000       1.54670000       0.90610000
H        2.28030000       1.56230000      -0.89170000
H       -2.28150000       1.55980000       0.89390000
H       -3.25990000       0.37500000       0.00550000
H       -2.28700000       1.54900000      -0.90390000
