 Entering Gaussian System
 *********************************************
 Gaussian 98:
 frequency output generated by the xtb code
 *********************************************
                         Standard orientation:
 --------------------------------------------------------------------
  Center     Atomic     Atomic              Coordinates (Angstroms)
  Number     Number      Type              X           Y           Z
 --------------------------------------------------------------------
    1          8             0       -0.303892    1.278954   -0.000177
    2          8             0       -0.987480   -0.841406   -0.000077
    3          6             0        1.376650   -0.366976    0.000090
    4          6             0       -0.089711   -0.044815   -0.000166
    5          1             0        1.837958    0.067294   -0.883513
    6          1             0        1.840716    0.078512    0.876583
    7          1             0        1.518778   -1.442648    0.006331
    8          1             0       -1.255217    1.468165   -0.000385
 --------------------------------------------------------------------
     1 basis functions        1 primitive gaussians
     1 alpha electrons        1 beta electrons

 Harmonic frequencies (cm**-1), IR intensities (km*mol⁻¹),
 Raman scattering activities (A**4/amu), Raman depolarization ratios,
 reduced masses (AMU), force constants (mDyne/A) and normal coordinates:
                      1                      2                      3
                        a                      a                      a 
 Frequencies --    28.3809               399.3715               528.7922
 Red. masses --     2.1103                10.5049                 6.2632
 Frc consts  --     0.0000                 0.0000                 0.0000
 IR Inten    --     0.5542                 3.6196                18.0928
 Raman Activ --     0.0000                 0.0000                 0.0000
 Depolar     --     0.0000                 0.0000                 0.0000
 Atom AN      X      Y      Z        X      Y      Z        X      Y      Z
   1   8    -0.00   0.00   0.19     0.47  -0.24   0.00     0.00   0.00  -0.06
   2   8     0.00  -0.00  -0.19    -0.40  -0.06  -0.00     0.00  -0.00  -0.22
   3   6     0.00   0.00   0.01     0.01   0.40  -0.00    -0.00  -0.00  -0.04
   4   6     0.00   0.00   0.02    -0.15  -0.29   0.00    -0.00   0.00   0.64
   5   1    -0.13  -0.47  -0.30    -0.11   0.25   0.00    -0.29   0.09  -0.12
   6   1     0.13   0.47  -0.31    -0.12   0.25  -0.01     0.28  -0.09  -0.12
   7   1     0.00   0.00   0.52     0.29   0.16   0.00     0.00  -0.00  -0.19
   8   1    -0.00   0.00   0.01     0.15   0.11  -0.00     0.00   0.00  -0.54
                      4                      5                      6
                        a                      a                      a 
 Frequencies --   564.7547               657.8979               897.4044
 Red. masses --    12.2991                 5.2285                10.8810
 Frc consts  --     0.0000                 0.0000                 0.0000
 IR Inten    --    47.9357               186.0560                 5.7305
 Raman Activ --     0.0000                 0.0000                 0.0000
 Depolar     --     0.0000                 0.0000                 0.0000
 Atom AN      X      Y      Z        X      Y      Z        X      Y      Z
   1   8    -0.30  -0.30  -0.00     0.00  -0.00  -0.36     0.14  -0.42   0.00
   2   8    -0.33   0.53  -0.00    -0.00   0.00  -0.21     0.27   0.28   0.00
   3   6     0.40  -0.05  -0.00     0.00   0.00   0.09    -0.57   0.15   0.00
   4   6     0.26  -0.13   0.00    -0.00  -0.00   0.38     0.26   0.07  -0.00
   5   1     0.08   0.02   0.00    -0.16   0.03  -0.05    -0.17   0.05  -0.00
   6   1     0.09   0.02  -0.00     0.16  -0.03  -0.05    -0.17   0.05   0.00
   7   1     0.20  -0.00  -0.00     0.00  -0.00  -0.06    -0.23   0.03  -0.00
   8   1    -0.13  -0.33  -0.00    -0.00  -0.00   0.78    -0.02  -0.34   0.00
                      7                      8                      9
                        a                      a                      a 
 Frequencies --   984.1344              1009.2208              1158.9079
 Red. masses --     6.0364                 5.8578                 7.2349
 Frc consts  --     0.0000                 0.0000                 0.0000
 IR Inten    --    43.1052                40.2239               217.6187
 Raman Activ --     0.0000                 0.0000                 0.0000
 Depolar     --     0.0000                 0.0000                 0.0000
 Atom AN      X      Y      Z        X      Y      Z        X      Y      Z
   1   8     0.05  -0.39  -0.00     0.00   0.00  -0.07    -0.20  -0.45  -0.00
   2   8    -0.11  -0.00  -0.00     0.00   0.00  -0.11     0.22   0.22  -0.00
   3   6     0.19   0.40  -0.00    -0.00  -0.00  -0.42     0.01  -0.21   0.00
   4   6    -0.15   0.13   0.00     0.00   0.00   0.49    -0.08   0.23  -0.00
   5   1     0.29  -0.23  -0.03     0.49  -0.08   0.12    -0.10   0.08   0.01
   6   1     0.30  -0.23   0.03    -0.49   0.08   0.12    -0.10   0.08  -0.01
   7   1    -0.53   0.02  -0.00    -0.00   0.00   0.22     0.24  -0.02   0.00
   8   1     0.06   0.17  -0.00    -0.00  -0.00  -0.01     0.12   0.67   0.00
                     10                     11                     12
                        a                      a                      a 
 Frequencies --  1245.1859              1367.6782              1440.1988
 Red. masses --     9.3287                 3.5613                 1.5832
 Frc consts  --     0.0000                 0.0000                 0.0000
 IR Inten    --   178.6676                49.9951                 9.5520
 Raman Activ --     0.0000                 0.0000                 0.0000
 Depolar     --     0.0000                 0.0000                 0.0000
 Atom AN      X      Y      Z        X      Y      Z        X      Y      Z
   1   8    -0.20   0.21  -0.00    -0.03   0.01  -0.00     0.00  -0.00  -0.01
   2   8    -0.02   0.10  -0.00     0.02   0.03  -0.00    -0.00  -0.00  -0.00
   3   6    -0.11   0.13   0.00    -0.46   0.07   0.00     0.00  -0.01   0.22
   4   6     0.47  -0.61   0.00     0.07  -0.09   0.00    -0.00   0.00   0.04
   5   1    -0.05  -0.01  -0.03     0.47  -0.12   0.21     0.19  -0.39  -0.06
   6   1    -0.05  -0.01   0.03     0.47  -0.12  -0.21    -0.18   0.42  -0.09
   7   1    -0.28  -0.00  -0.00     0.45   0.08  -0.00    -0.02  -0.01  -0.73
   8   1     0.05   0.44   0.00     0.01   0.06  -0.00     0.00  -0.00  -0.00
                     13                     14                     15
                        a                      a                      a 
 Frequencies --  1441.1380              1802.8000              3036.8737
 Red. masses --     1.6563                13.2305                 1.9485
 Frc consts  --     0.0000                 0.0000                 0.0000
 IR Inten    --    22.5592               511.0474                 4.1465
 Raman Activ --     0.0000                 0.0000                 0.0000
 Depolar     --     0.0000                 0.0000                 0.0000
 Atom AN      X      Y      Z        X      Y      Z        X      Y      Z
   1   8     0.00  -0.01   0.00     0.03   0.06   0.00    -0.00   0.00   0.00
   2   8    -0.04  -0.03  -0.00     0.44   0.38  -0.00    -0.00  -0.00   0.00
   3   6     0.03  -0.23  -0.01     0.07   0.01   0.00     0.01   0.00  -0.29
   4   6     0.01   0.03  -0.00    -0.62  -0.49   0.00     0.00   0.00  -0.01
   5   1     0.19   0.50   0.35     0.03   0.00   0.02    -0.31  -0.29   0.56
   6   1     0.20   0.46  -0.35     0.03   0.00  -0.02     0.29   0.28   0.51
   7   1    -0.38  -0.08   0.03    -0.05  -0.01  -0.00     0.00   0.00  -0.04
   8   1     0.00  -0.00   0.00    -0.02  -0.10  -0.00     0.00  -0.00  -0.00
                     16                     17                     18
                        a                      a                      a 
 Frequencies --  3042.7481              3075.0782              3452.5988
 Red. masses --     1.3925                 1.8333                 1.8476
 Frc consts  --     0.0000                 0.0000                 0.0000
 IR Inten    --     2.3272                 7.9806                29.6606
 Raman Activ --     0.0000                 0.0000                 0.0000
 Depolar     --     0.0000                 0.0000                 0.0000
 Atom AN      X      Y      Z        X      Y      Z        X      Y      Z
   1   8    -0.00   0.00  -0.00    -0.00  -0.00  -0.00    -0.23   0.04  -0.00
   2   8    -0.00  -0.00  -0.00    -0.00  -0.00   0.00    -0.00  -0.00  -0.00
   3   6     0.15   0.11   0.01    -0.01   0.27  -0.00     0.00   0.00  -0.00
   4   6     0.01   0.01   0.00     0.00   0.01  -0.00    -0.01   0.01  -0.00
   5   1    -0.26  -0.25   0.55    -0.04  -0.01   0.09     0.00   0.00  -0.00
   6   1    -0.29  -0.28  -0.59    -0.05  -0.01  -0.09     0.00   0.00   0.00
   7   1    -0.00   0.17   0.00     0.12  -0.94   0.01    -0.00  -0.00   0.00
   8   1     0.01  -0.00   0.00     0.00   0.00   0.00     0.95  -0.21   0.00
