20
 energy: -32.799849565033 gnorm: 0.000438718020 xtb: 6.7.1 (edcfbbe)
O            3.86721508427610        0.36512208575751        0.00011712676861
O           -2.61835519848887        1.37711310437892        0.00186700079307
N           -1.58722131215712       -0.66048755727604        0.00055994693697
C           -0.22292421714370       -0.33686256419363       -0.00001799327603
C            0.25048262295325        0.97018002220038        0.00061531043375
C            0.69311023855118       -1.38861723110181       -0.00077091773880
C            1.61082018731795        1.21853009067874        0.00064611188101
C            2.04883995142310       -1.14118260319438       -0.00073911975361
C            2.52122583201440        0.16908210421220        0.00003812663096
C           -2.66901364266991        0.15304207247027        0.00182809084803
C           -3.97505087714116       -0.60639956422477        0.00110769195171
H           -0.44771535155715        1.79063091245778        0.00119927053912
H            0.34089117325469       -2.40881460145292       -0.00125698548636
H           -1.77283840379263       -1.65537722727963       -0.00047850069844
H            1.96072971737312        2.24034638077958        0.00116132134213
H            2.76269307205283       -1.94909034775803       -0.00127239568172
H           -4.05058211484409       -1.21516693321303       -0.89621026125650
H           -4.79737357720451        0.10241263645650        0.02279325135431
H           -4.03335744657270       -1.25191656709747        0.87342581325936
H            4.07302426235521        1.31165578739983        0.00078711115244
