 Entering Gaussian System
 *********************************************
 Gaussian 98:
 frequency output generated by the xtb code
 *********************************************
                         Standard orientation:
 --------------------------------------------------------------------
  Center     Atomic     Atomic              Coordinates (Angstroms)
  Number     Number      Type              X           Y           Z
 --------------------------------------------------------------------
    1          6             0      -10.721282    1.445194   -1.281692
    2          6             0       -9.298652    1.009753   -1.422866
    3          8             0       -8.937474   -0.125141   -1.656621
    4          8             0       -8.458230    2.033190   -1.265943
    5          6             0       -7.020200    1.819285   -1.349704
    6          6             0       -6.574566    1.036839   -0.110723
    7          8             0       -6.706605    1.190526   -2.547244
    8          7             0       -6.513554    3.158916   -1.327200
    9          6             0       -5.218749    3.525033   -1.688276
   10          6             0       -4.182038    2.621120   -1.895629
   11          6             0       -2.900674    3.065029   -2.172612
   12          6             0       -2.622823    4.421354   -2.251241
   13          8             0       -1.370752    4.904293   -2.516021
   14          6             0       -3.656835    5.333019   -2.061156
   15          6             0       -4.931897    4.889285   -1.786265
   16          1             0      -11.366360    0.573294   -1.253030
   17          1             0      -10.983005    2.069534   -2.132741
   18          1             0      -10.830937    2.041489   -0.380706
   19          1             0       -7.015316    0.043239   -0.119327
   20          1             0       -6.901498    1.576007    0.772943
   21          1             0       -5.493450    0.958888   -0.100498
   22          1             0       -7.051604    0.280595   -2.541264
   23          1             0       -7.215840    3.838683   -1.583319
   24          1             0       -4.370113    1.561076   -1.874195
   25          1             0       -2.114836    2.340762   -2.331924
   26          1             0       -0.747425    4.171468   -2.625944
   27          1             0       -3.439412    6.386907   -2.133815
   28          1             0       -5.723344    5.608333   -1.640592
 --------------------------------------------------------------------
     1 basis functions        1 primitive gaussians
     1 alpha electrons        1 beta electrons

 Harmonic frequencies (cm**-1), IR intensities (km*mol⁻¹),
 Raman scattering activities (A**4/amu), Raman depolarization ratios,
 reduced masses (AMU), force constants (mDyne/A) and normal coordinates:
                      1                      2                      3
                        a                      a                      a 
 Frequencies --    19.7760                27.6696                61.0510
 Red. masses --     3.8336                10.1135                10.2431
 Frc consts  --     0.0000                 0.0000                 0.0000
 IR Inten    --     3.2193                 0.5909                 3.6735
 Raman Activ --     0.0000                 0.0000                 0.0000
 Depolar     --     0.0000                 0.0000                 0.0000
 Atom AN      X      Y      Z        X      Y      Z        X      Y      Z
   1   6     0.01   0.01  -0.03     0.01   0.10  -0.27    -0.01  -0.10  -0.37
   2   6     0.01   0.02  -0.09     0.01   0.05  -0.12     0.04  -0.05  -0.05
   3   8     0.01   0.04  -0.16    -0.02   0.07  -0.25     0.17  -0.07   0.20
   4   8     0.01   0.01  -0.03     0.04  -0.01   0.12    -0.04   0.02  -0.05
   5   6     0.01  -0.01   0.07     0.03  -0.04   0.16    -0.02   0.07   0.07
   6   6    -0.09  -0.07   0.07    -0.07  -0.19   0.10    -0.03   0.18   0.15
   7   8     0.10   0.05   0.08     0.10   0.10   0.13     0.06  -0.01   0.15
   8   7     0.04  -0.02   0.18     0.08  -0.06   0.36    -0.05   0.08   0.03
   9   6     0.01  -0.01   0.09     0.03  -0.03   0.19    -0.03   0.05   0.05
  10   6     0.03  -0.01   0.16     0.05  -0.01   0.20    -0.12   0.01  -0.22
  11   6     0.01  -0.00   0.07     0.01   0.01   0.04    -0.12  -0.05  -0.29
  12   6    -0.02  -0.00  -0.07    -0.05   0.01  -0.13    -0.02  -0.05  -0.06
  13   8    -0.05   0.00  -0.19    -0.11   0.04  -0.36    -0.02  -0.13  -0.19
  14   6    -0.04  -0.01  -0.13    -0.07  -0.01  -0.12     0.09  -0.00   0.28
  15   6    -0.02  -0.02  -0.05    -0.03  -0.03   0.04     0.08   0.05   0.34
  16   1    -0.04   0.02  -0.47     0.01   0.03   0.14     0.00  -0.04  -0.20
  17   1     0.13   0.43   0.27    -0.03  -0.19  -0.23     0.06   0.01  -0.10
  18   1    -0.07  -0.42   0.27     0.02   0.25  -0.23    -0.08  -0.07  -0.09
  19   1    -0.03  -0.02  -0.00    -0.04  -0.05  -0.01     0.03   0.04   0.05
  20   1    -0.04  -0.03   0.02    -0.02  -0.08   0.04    -0.05   0.05   0.03
  21   1    -0.03  -0.02   0.04    -0.02  -0.07   0.04    -0.00   0.10   0.07
  22   1     0.02   0.01  -0.00     0.02   0.03  -0.00     0.03  -0.01   0.06
  23   1     0.01   0.00   0.07     0.02  -0.00   0.13    -0.01   0.02   0.02
  24   1     0.02  -0.00   0.08     0.03  -0.01   0.10    -0.06   0.01  -0.11
  25   1     0.01   0.00   0.04     0.01   0.01   0.01    -0.06  -0.02  -0.15
  26   1    -0.01   0.00  -0.03    -0.02   0.01  -0.09    -0.03  -0.04  -0.12
  27   1    -0.02  -0.00  -0.07    -0.03  -0.00  -0.07     0.05  -0.00   0.14
  28   1    -0.01  -0.01  -0.03    -0.01  -0.01   0.01     0.05   0.03   0.17
                      4                      5                      6
                        a                      a                      a 
 Frequencies --    72.7585               104.3666               116.3262
 Red. masses --    11.9615                13.2863                12.2293
 Frc consts  --     0.0000                 0.0000                 0.0000
 IR Inten    --     2.6401                 7.7954                 0.2969
 Raman Activ --     0.0000                 0.0000                 0.0000
 Depolar     --     0.0000                 0.0000                 0.0000
 Atom AN      X      Y      Z        X      Y      Z        X      Y      Z
   1   6    -0.02   0.39  -0.22    -0.01  -0.04  -0.21     0.02   0.02  -0.30
   2   6    -0.08   0.09   0.04     0.02  -0.03   0.13     0.05   0.00   0.03
   3   8    -0.29  -0.01   0.31     0.11  -0.09   0.59     0.08   0.04  -0.10
   4   8     0.08  -0.04  -0.02    -0.03   0.06  -0.09     0.04  -0.06   0.49
   5   6     0.05  -0.17   0.00    -0.03   0.04  -0.11     0.03   0.02   0.16
   6   6     0.04  -0.15   0.02     0.02  -0.20  -0.29     0.30  -0.04   0.02
   7   8    -0.01  -0.31   0.04    -0.12   0.33  -0.30    -0.20   0.13   0.06
   8   7     0.11  -0.21  -0.08    -0.00   0.03   0.13    -0.02   0.04   0.10
   9   6     0.07  -0.11  -0.05     0.00   0.02   0.09    -0.07   0.03  -0.13
  10   6     0.13  -0.02  -0.13     0.01   0.01   0.17    -0.11   0.00  -0.18
  11   6     0.10   0.10  -0.10     0.01  -0.02   0.14    -0.08  -0.03  -0.10
  12   6    -0.01   0.13   0.01     0.00  -0.02   0.01    -0.03  -0.04   0.00
  13   8    -0.06   0.30   0.06    -0.00  -0.06  -0.07     0.05  -0.08   0.34
  14   6    -0.08   0.04   0.08     0.00  -0.01  -0.07    -0.04  -0.02  -0.17
  15   6    -0.04  -0.08   0.05     0.00   0.01  -0.02    -0.07   0.02  -0.24
  16   1    -0.06   0.16  -0.14    -0.01  -0.01  -0.11    -0.00   0.01  -0.18
  17   1     0.09   0.17  -0.05     0.06  -0.00  -0.07     0.08   0.04  -0.08
  18   1    -0.02   0.08  -0.04    -0.07  -0.02  -0.06    -0.07  -0.03  -0.07
  19   1    -0.04  -0.02   0.04     0.03  -0.07  -0.14     0.05   0.00   0.03
  20   1     0.07  -0.01   0.00    -0.01  -0.12  -0.05     0.17  -0.01   0.03
  21   1     0.01  -0.10  -0.03     0.01  -0.04  -0.08     0.08  -0.05  -0.08
  22   1     0.00  -0.08   0.04     0.05   0.05  -0.09    -0.04   0.03   0.02
  23   1     0.02  -0.05   0.01     0.01   0.02   0.04    -0.02   0.00   0.05
  24   1     0.06  -0.01  -0.05     0.01   0.00   0.07    -0.04   0.00  -0.07
  25   1     0.04   0.05  -0.05     0.00  -0.01   0.06    -0.03  -0.02  -0.02
  26   1     0.00   0.09  -0.00    -0.00  -0.02   0.00     0.01  -0.03   0.12
  27   1    -0.05   0.02   0.05    -0.00  -0.01  -0.05    -0.00  -0.01  -0.06
  28   1    -0.03  -0.04   0.03     0.00   0.01  -0.03    -0.02   0.01  -0.09
                      7                      8                      9
                        a                      a                      a 
 Frequencies --   153.0086               176.1517               185.1815
 Red. masses --    10.6836                 5.4807                 9.4539
 Frc consts  --     0.0000                 0.0000                 0.0000
 IR Inten    --     3.2336                 1.8236                 0.0027
 Raman Activ --     0.0000                 0.0000                 0.0000
 Depolar     --     0.0000                 0.0000                 0.0000
 Atom AN      X      Y      Z        X      Y      Z        X      Y      Z
   1   6     0.01  -0.01   0.10    -0.10  -0.26  -0.00    -0.15  -0.22  -0.08
   2   6     0.02   0.03  -0.01    -0.02   0.03  -0.00    -0.06   0.05   0.04
   3   8     0.06   0.03   0.11     0.16   0.08   0.05     0.10   0.12  -0.05
   4   8    -0.00   0.09  -0.25    -0.13   0.15  -0.05    -0.16   0.11   0.22
   5   6    -0.00  -0.00   0.05    -0.10   0.03   0.03    -0.12   0.01   0.03
   6   6    -0.27  -0.14   0.07    -0.26  -0.06   0.03    -0.08   0.05   0.04
   7   8     0.24   0.11   0.08    -0.12   0.03   0.05    -0.38  -0.03   0.01
   8   7     0.11  -0.04   0.32     0.10  -0.03   0.08     0.09  -0.07  -0.09
   9   6    -0.01  -0.03  -0.08     0.08  -0.06  -0.02     0.13  -0.15  -0.03
  10   6    -0.04  -0.03  -0.26     0.11  -0.02  -0.07     0.22  -0.08  -0.01
  11   6    -0.05  -0.01  -0.29     0.10   0.03  -0.10     0.20   0.04   0.01
  12   6    -0.02   0.00  -0.06     0.07   0.04  -0.04     0.12   0.06  -0.01
  13   8     0.06   0.04   0.37     0.08   0.13   0.05     0.06   0.25  -0.06
  14   6    -0.05  -0.01  -0.13     0.04  -0.00  -0.02     0.04  -0.03   0.01
  15   6    -0.05  -0.03  -0.17     0.06  -0.05  -0.02     0.08  -0.13  -0.00
  16   1     0.02  -0.01   0.07     0.03  -0.12  -0.00     0.01  -0.10  -0.05
  17   1    -0.03  -0.03   0.02    -0.07  -0.09  -0.00    -0.05  -0.07  -0.03
  18   1     0.03   0.02   0.02    -0.07  -0.08   0.00    -0.11  -0.08  -0.02
  19   1     0.06  -0.10  -0.11    -0.43   0.14   0.19     0.22  -0.09  -0.12
  20   1    -0.27  -0.15   0.02     0.29   0.19   0.01    -0.28  -0.13   0.00
  21   1    -0.07   0.11   0.16    -0.10  -0.41  -0.20    -0.01   0.28   0.16
  22   1     0.06   0.03  -0.02    -0.03   0.01   0.02    -0.13   0.00   0.01
  23   1     0.02   0.02   0.20     0.04   0.02   0.07     0.05   0.01  -0.03
  24   1    -0.01  -0.01  -0.07     0.04  -0.01  -0.02     0.08  -0.03  -0.00
  25   1    -0.01   0.00  -0.10     0.03   0.01  -0.04     0.07   0.03   0.01
  26   1     0.02   0.01   0.10     0.03   0.04   0.01     0.04   0.09  -0.03
  27   1    -0.01  -0.00  -0.02     0.00   0.00   0.00    -0.01  -0.00   0.01
  28   1    -0.02  -0.01  -0.04     0.01  -0.02  -0.00     0.01  -0.05   0.00
                     10                     11                     12
                        a                      a                      a 
 Frequencies --   241.5407               276.9981               326.8907
 Red. masses --    13.7612                11.7003                10.2811
 Frc consts  --     0.0000                 0.0000                 0.0000
 IR Inten    --     5.6111                32.3083                 3.0734
 Raman Activ --     0.0000                 0.0000                 0.0000
 Depolar     --     0.0000                 0.0000                 0.0000
 Atom AN      X      Y      Z        X      Y      Z        X      Y      Z
   1   6    -0.19  -0.09  -0.02     0.04  -0.04  -0.01    -0.34  -0.24  -0.01
   2   6    -0.21  -0.21   0.00     0.07   0.09   0.03    -0.16   0.23  -0.03
   3   8    -0.47  -0.32  -0.02     0.18   0.14   0.01    -0.15   0.26   0.06
   4   8    -0.14  -0.29   0.04     0.06   0.10   0.07    -0.04   0.17  -0.15
   5   6    -0.03   0.01   0.05     0.02  -0.11  -0.00     0.05  -0.02  -0.00
   6   6    -0.02  -0.02   0.03    -0.17  -0.35  -0.06     0.40  -0.04  -0.14
   7   8     0.03   0.10   0.05    -0.15  -0.40   0.09     0.29  -0.17   0.14
   8   7     0.01   0.07   0.10     0.02  -0.09  -0.13     0.02  -0.02   0.06
   9   6     0.02   0.16   0.02    -0.08   0.25  -0.06     0.01  -0.00   0.07
  10   6     0.06   0.19  -0.02    -0.10   0.22   0.01    -0.01  -0.01   0.01
  11   6     0.08   0.13  -0.05    -0.08   0.13   0.09    -0.02  -0.00   0.02
  12   6     0.21   0.11  -0.07     0.03   0.10   0.03    -0.04  -0.00  -0.01
  13   8     0.33  -0.03  -0.03     0.16  -0.25  -0.08    -0.02  -0.06   0.02
  14   6     0.20   0.10  -0.07     0.08   0.17   0.02    -0.04   0.00  -0.07
  15   6     0.16   0.15  -0.04     0.00   0.25  -0.03    -0.01   0.00   0.06
  16   1    -0.07  -0.02  -0.01     0.04  -0.03  -0.01     0.04  -0.17  -0.02
  17   1    -0.04  -0.02  -0.01     0.00  -0.02  -0.01    -0.20  -0.10   0.00
  18   1    -0.05  -0.02  -0.01    -0.02  -0.02  -0.00    -0.19  -0.11   0.01
  19   1    -0.00  -0.01  -0.01    -0.05  -0.10  -0.12     0.18  -0.04  -0.04
  20   1    -0.01  -0.02   0.02    -0.10  -0.18   0.01     0.17  -0.07   0.01
  21   1    -0.00   0.00   0.01    -0.05  -0.10   0.04     0.12   0.06  -0.15
  22   1     0.05   0.01  -0.00    -0.11  -0.07   0.07     0.08  -0.05   0.06
  23   1    -0.01   0.02   0.06    -0.05  -0.03   0.11     0.00   0.00   0.04
  24   1     0.02   0.06   0.00    -0.06   0.07   0.01    -0.00  -0.00  -0.03
  25   1     0.00   0.02  -0.01    -0.04   0.02   0.04    -0.00   0.00   0.01
  26   1     0.06  -0.03   0.00    -0.02  -0.12  -0.01    -0.00  -0.02   0.06
  27   1     0.05   0.03  -0.02     0.04   0.05   0.01    -0.02  -0.00  -0.04
  28   1     0.07   0.07  -0.02     0.02   0.09  -0.02    -0.01  -0.00   0.02
                     13                     14                     15
                        a                      a                      a 
 Frequencies --   336.0819               359.5058               369.0077
 Red. masses --    10.9272                 4.2308                 8.5044
 Frc consts  --     0.0000                 0.0000                 0.0000
 IR Inten    --    10.4243               173.7334                51.4805
 Raman Activ --     0.0000                 0.0000                 0.0000
 Depolar     --     0.0000                 0.0000                 0.0000
 Atom AN      X      Y      Z        X      Y      Z        X      Y      Z
   1   6    -0.08  -0.04  -0.01    -0.01  -0.01   0.00    -0.04  -0.02  -0.01
   2   6    -0.04   0.03   0.07    -0.00   0.02  -0.01    -0.00   0.04   0.10
   3   8    -0.05   0.06   0.01    -0.00   0.02   0.00     0.01   0.08  -0.01
   4   8    -0.01  -0.00   0.16     0.01   0.01  -0.03     0.01  -0.01   0.25
   5   6     0.03   0.03   0.07     0.01  -0.01  -0.02     0.04   0.04   0.02
   6   6    -0.07  -0.14   0.00     0.04   0.02  -0.01    -0.16  -0.20  -0.07
   7   8     0.29   0.21   0.09    -0.04  -0.05  -0.02     0.24   0.06   0.07
   8   7    -0.01   0.04  -0.10    -0.01  -0.01   0.01    -0.19   0.13  -0.31
   9   6    -0.08  -0.04  -0.40     0.03  -0.00   0.13     0.02   0.01   0.12
  10   6    -0.03  -0.04  -0.16     0.06   0.01   0.24     0.02   0.00   0.19
  11   6     0.05  -0.04   0.18    -0.05   0.03  -0.20    -0.03  -0.05  -0.24
  12   6     0.06  -0.03   0.28    -0.01   0.03  -0.03    -0.01  -0.06  -0.22
  13   8    -0.08   0.06  -0.21     0.08  -0.04   0.30    -0.00   0.11   0.13
  14   6     0.07  -0.04   0.35    -0.01   0.02   0.02     0.03  -0.05  -0.06
  15   6    -0.06  -0.04  -0.29    -0.04  -0.01  -0.15     0.05  -0.00   0.10
  16   1    -0.00  -0.03  -0.02     0.00  -0.01  -0.00     0.00  -0.02  -0.03
  17   1    -0.02  -0.02  -0.01    -0.01  -0.00   0.00     0.01  -0.01  -0.02
  18   1    -0.06  -0.02  -0.01    -0.01  -0.01   0.00    -0.06  -0.01  -0.01
  19   1    -0.05  -0.03  -0.06     0.02   0.00   0.01    -0.10  -0.03  -0.14
  20   1    -0.02  -0.08   0.02     0.02   0.01  -0.01    -0.08  -0.12   0.01
  21   1    -0.02  -0.07   0.02     0.01   0.01  -0.01    -0.05  -0.12   0.04
  22   1     0.20   0.01  -0.00    -0.02  -0.01   0.00     0.25  -0.05   0.05
  23   1    -0.02   0.01   0.03     0.01  -0.01  -0.06    -0.02  -0.07  -0.45
  24   1    -0.00  -0.01  -0.04     0.03   0.00   0.11     0.02   0.00   0.11
  25   1     0.02  -0.01   0.07    -0.03   0.01  -0.12    -0.03  -0.03  -0.10
  26   1    -0.04   0.03  -0.24    -0.18  -0.04  -0.81     0.06   0.06   0.15
  27   1     0.04  -0.01   0.16    -0.01   0.01   0.02     0.02  -0.02   0.01
  28   1    -0.03  -0.01  -0.13    -0.03  -0.01  -0.11     0.02   0.00   0.05
                     16                     17                     18
                        a                      a                      a 
 Frequencies --   386.3543               393.8942               410.0446
 Red. masses --     9.2490                 9.9222                 3.5837
 Frc consts  --     0.0000                 0.0000                 0.0000
 IR Inten    --    26.8574                13.3648               183.4893
 Raman Activ --     0.0000                 0.0000                 0.0000
 Depolar     --     0.0000                 0.0000                 0.0000
 Atom AN      X      Y      Z        X      Y      Z        X      Y      Z
   1   6    -0.04  -0.03  -0.01     0.04   0.02   0.01    -0.05  -0.09  -0.05
   2   6    -0.01   0.03   0.02     0.01  -0.02  -0.07     0.00   0.05   0.15
   3   8    -0.02   0.04   0.00     0.01  -0.05   0.01    -0.13   0.02   0.04
   4   8     0.03  -0.00   0.03    -0.02   0.02  -0.17     0.13  -0.04   0.04
   5   6     0.03  -0.06  -0.04    -0.04   0.05   0.04     0.11  -0.02   0.00
   6   6     0.02   0.10   0.06     0.12  -0.05  -0.07    -0.06  -0.03   0.08
   7   8    -0.00   0.07  -0.12    -0.13  -0.17   0.11     0.26   0.04  -0.04
   8   7     0.07  -0.10   0.01    -0.05   0.09   0.14     0.03   0.02  -0.06
   9   6     0.05  -0.11  -0.00    -0.06   0.13   0.05     0.05   0.03  -0.02
  10   6     0.15  -0.04   0.26    -0.06   0.08   0.25    -0.00  -0.02  -0.02
  11   6    -0.08   0.19  -0.28    -0.04  -0.19  -0.22    -0.00  -0.02   0.01
  12   6    -0.10   0.20   0.00     0.11  -0.20   0.04    -0.05  -0.01   0.01
  13   8     0.09  -0.33  -0.10    -0.11   0.31  -0.08    -0.07  -0.02   0.01
  14   6    -0.07   0.18   0.32     0.20  -0.16   0.25    -0.01   0.03  -0.01
  15   6    -0.12  -0.09  -0.24     0.00   0.09  -0.30    -0.00   0.04   0.01
  16   1     0.01  -0.02  -0.01    -0.00   0.02   0.02     0.03  -0.06  -0.06
  17   1    -0.02  -0.01  -0.00    -0.00   0.01   0.01     0.01  -0.05  -0.04
  18   1    -0.03  -0.01  -0.00     0.05   0.01   0.01    -0.11  -0.03  -0.03
  19   1     0.01   0.02   0.07     0.06  -0.02  -0.05    -0.05   0.01   0.01
  20   1    -0.01   0.08  -0.02     0.07  -0.06   0.02    -0.04   0.02   0.00
  21   1     0.01   0.04   0.04     0.03   0.01  -0.07    -0.02  -0.05   0.06
  22   1     0.05  -0.00  -0.04    -0.21   0.02   0.04    -0.72   0.30  -0.36
  23   1     0.03  -0.02  -0.01    -0.02   0.02   0.03     0.01  -0.05  -0.17
  24   1     0.10  -0.02   0.15    -0.05   0.03   0.12    -0.02  -0.00  -0.01
  25   1    -0.00   0.09  -0.17    -0.07  -0.10  -0.14     0.01   0.00   0.00
  26   1    -0.01  -0.17   0.33     0.12   0.17   0.17    -0.02  -0.00   0.00
  27   1    -0.06   0.06   0.19     0.13  -0.06   0.12     0.01   0.01  -0.01
  28   1    -0.08  -0.07  -0.13     0.02   0.07  -0.18    -0.01   0.00   0.01
                     19                     20                     21
                        a                      a                      a 
 Frequencies --   417.4897               468.0189               476.9204
 Red. masses --     9.0843                 8.1155                12.1524
 Frc consts  --     0.0000                 0.0000                 0.0000
 IR Inten    --    23.3590               198.8756                24.3587
 Raman Activ --     0.0000                 0.0000                 0.0000
 Depolar     --     0.0000                 0.0000                 0.0000
 Atom AN      X      Y      Z        X      Y      Z        X      Y      Z
   1   6    -0.08  -0.10  -0.03     0.01  -0.10  -0.01     0.11  -0.08  -0.01
   2   6     0.01   0.08   0.11     0.07   0.12  -0.07     0.09  -0.04  -0.09
   3   8    -0.14   0.08  -0.00    -0.18   0.03   0.03    -0.26  -0.19  -0.00
   4   8     0.15  -0.04   0.20     0.20   0.01  -0.07     0.04   0.05  -0.06
   5   6     0.17  -0.13  -0.18     0.20  -0.09   0.02     0.07   0.26   0.09
   6   6    -0.09   0.14   0.09    -0.03  -0.02   0.14    -0.01  -0.05  -0.09
   7   8     0.02  -0.01  -0.30    -0.24  -0.02  -0.18    -0.17   0.02   0.22
   8   7     0.21  -0.16  -0.13     0.02   0.03   0.29     0.29   0.20  -0.13
   9   6     0.03   0.17  -0.01     0.09   0.07   0.16     0.28   0.05  -0.13
  10   6    -0.05   0.06   0.13    -0.05   0.03  -0.19     0.13  -0.16   0.03
  11   6    -0.02  -0.18  -0.04     0.01  -0.03   0.02     0.06  -0.09  -0.01
  12   6    -0.07  -0.17  -0.08     0.03  -0.02   0.28    -0.26  -0.04  -0.03
  13   8    -0.17   0.11   0.09    -0.09  -0.01  -0.09    -0.33  -0.14   0.10
  14   6     0.06  -0.06  -0.02     0.02   0.03  -0.02    -0.03   0.19   0.01
  15   6    -0.00   0.18   0.04    -0.01   0.08  -0.10     0.04   0.12   0.01
  16   1     0.04  -0.08  -0.04     0.09  -0.10  -0.01     0.06  -0.04   0.01
  17   1    -0.03  -0.06  -0.03    -0.08  -0.05   0.01    -0.01  -0.03   0.01
  18   1    -0.12  -0.04  -0.01    -0.04  -0.06   0.01     0.03  -0.03   0.00
  19   1    -0.06   0.05   0.11    -0.04   0.01   0.06    -0.04  -0.00  -0.16
  20   1    -0.10   0.16  -0.07    -0.07   0.05  -0.02     0.00  -0.12   0.04
  21   1    -0.03   0.02   0.15    -0.01  -0.03   0.14    -0.01  -0.06  -0.03
  22   1     0.18  -0.07  -0.03     0.17  -0.09   0.07    -0.02  -0.01   0.16
  23   1    -0.01   0.05   0.41     0.03  -0.17  -0.50     0.09   0.10   0.04
  24   1    -0.07   0.03   0.09    -0.06   0.02  -0.13     0.00  -0.04   0.05
  25   1    -0.02  -0.07   0.00    -0.01  -0.01  -0.07     0.07   0.03   0.01
  26   1     0.01   0.08   0.01    -0.01   0.01  -0.00    -0.09  -0.05   0.02
  27   1     0.09  -0.03   0.00     0.01   0.00  -0.10     0.05   0.04   0.03
  28   1     0.02   0.07   0.02    -0.02   0.02  -0.11    -0.02  -0.02   0.05
                     22                     23                     24
                        a                      a                      a 
 Frequencies --   497.5851               534.0315               559.8624
 Red. masses --     9.3898                11.2639                11.4043
 Frc consts  --     0.0000                 0.0000                 0.0000
 IR Inten    --    19.2029                36.1635                27.7659
 Raman Activ --     0.0000                 0.0000                 0.0000
 Depolar     --     0.0000                 0.0000                 0.0000
 Atom AN      X      Y      Z        X      Y      Z        X      Y      Z
   1   6    -0.00   0.03  -0.00    -0.04   0.02   0.01    -0.28   0.15   0.04
   2   6    -0.02  -0.09   0.18    -0.05   0.05  -0.35    -0.24  -0.16   0.03
   3   8     0.04  -0.03  -0.07     0.06  -0.02   0.13     0.38   0.04  -0.03
   4   8    -0.09  -0.02   0.16    -0.02  -0.01  -0.10    -0.29  -0.11   0.01
   5   6    -0.08   0.12  -0.13     0.00  -0.12   0.22    -0.04  -0.12  -0.02
   6   6    -0.11   0.10  -0.20     0.11  -0.18   0.29     0.03  -0.01   0.02
   7   8     0.19  -0.13   0.04    -0.09   0.34   0.07     0.07  -0.01  -0.04
   8   7     0.04   0.04  -0.12     0.02  -0.17  -0.48     0.18  -0.11   0.13
   9   6     0.15  -0.00   0.43     0.03   0.05   0.17     0.18   0.16  -0.07
  10   6     0.02  -0.06  -0.08     0.02   0.05   0.02     0.14   0.09  -0.05
  11   6    -0.01  -0.01  -0.10     0.01  -0.03  -0.08     0.18  -0.12  -0.01
  12   6     0.04   0.02   0.45     0.03  -0.03   0.18    -0.13  -0.09  -0.02
  13   8    -0.08  -0.03  -0.11    -0.01  -0.01  -0.03    -0.24  -0.11   0.06
  14   6    -0.03   0.04  -0.09    -0.02  -0.03  -0.07     0.04   0.10   0.01
  15   6    -0.00  -0.01  -0.08    -0.04   0.06   0.04    -0.01   0.25  -0.02
  16   1    -0.05   0.04  -0.03     0.01  -0.00   0.09    -0.21   0.14   0.03
  17   1     0.10   0.01  -0.04    -0.16   0.04   0.07     0.01   0.08   0.01
  18   1    -0.04   0.04  -0.02     0.13  -0.03   0.05     0.02   0.08   0.00
  19   1    -0.04   0.03  -0.08     0.04  -0.06   0.08     0.04  -0.02   0.07
  20   1    -0.03   0.00  -0.04     0.05  -0.07   0.10     0.02   0.03  -0.01
  21   1    -0.03   0.02  -0.07     0.03  -0.04   0.05     0.01   0.04  -0.02
  22   1    -0.01  -0.01   0.03     0.00   0.08  -0.12     0.02  -0.01  -0.06
  23   1     0.04   0.11   0.17    -0.03  -0.00   0.11     0.07  -0.10  -0.23
  24   1    -0.04  -0.01  -0.21    -0.04   0.02  -0.07    -0.02   0.04   0.02
  25   1    -0.03   0.01  -0.22    -0.02  -0.01  -0.12     0.07  -0.01   0.01
  26   1    -0.02  -0.01   0.02     0.00  -0.00   0.01    -0.05  -0.02   0.01
  27   1    -0.05   0.00  -0.22    -0.01  -0.01  -0.12     0.10   0.01   0.01
  28   1    -0.05  -0.02  -0.22    -0.02   0.02  -0.09    -0.00   0.06   0.02
                     25                     26                     27
                        a                      a                      a 
 Frequencies --   595.0823               612.2222               659.9231
 Red. masses --    10.8469                11.4039                11.4850
 Frc consts  --     0.0000                 0.0000                 0.0000
 IR Inten    --    39.9847                 7.9309                 1.2970
 Raman Activ --     0.0000                 0.0000                 0.0000
 Depolar     --     0.0000                 0.0000                 0.0000
 Atom AN      X      Y      Z        X      Y      Z        X      Y      Z
   1   6    -0.09   0.04  -0.04    -0.10   0.03   0.03    -0.02   0.01   0.00
   2   6    -0.07   0.09  -0.55    -0.06  -0.05   0.16    -0.01  -0.00  -0.00
   3   8     0.09  -0.03   0.25     0.10   0.05  -0.08     0.01   0.00   0.00
   4   8     0.01  -0.14   0.39    -0.01  -0.04  -0.16     0.01  -0.02   0.00
   5   6     0.06   0.04  -0.12     0.04  -0.08   0.04     0.03   0.01  -0.01
   6   6    -0.07   0.09  -0.14     0.07  -0.09   0.14     0.00   0.01  -0.02
   7   8     0.13  -0.16  -0.07    -0.06   0.04  -0.04    -0.01  -0.02  -0.00
   8   7    -0.01   0.10   0.13     0.01  -0.00  -0.05     0.01   0.04   0.11
   9   6     0.02  -0.05  -0.01     0.05  -0.08  -0.02    -0.11  -0.01  -0.52
  10   6    -0.07  -0.13   0.00    -0.23  -0.35   0.08     0.08   0.02   0.30
  11   6    -0.11   0.04   0.04    -0.38   0.08   0.06    -0.05  -0.00  -0.31
  12   6    -0.02   0.03  -0.02    -0.04   0.07   0.03     0.11   0.01   0.51
  13   8    -0.03   0.04   0.01    -0.09   0.13   0.01    -0.01  -0.01  -0.07
  14   6     0.08   0.11  -0.00     0.27   0.34  -0.08    -0.07  -0.02  -0.30
  15   6     0.14  -0.06  -0.05     0.43  -0.09  -0.07     0.05   0.01   0.30
  16   1     0.01  -0.01   0.13    -0.06   0.04  -0.03    -0.01   0.00   0.00
  17   1    -0.30   0.07   0.12     0.07  -0.00  -0.03    -0.01   0.00   0.00
  18   1     0.21  -0.07   0.08    -0.08   0.04  -0.02    -0.00   0.00   0.00
  19   1    -0.06   0.04  -0.06     0.02  -0.03   0.06    -0.00   0.00  -0.01
  20   1    -0.06   0.05  -0.07     0.02  -0.01   0.03    -0.00   0.01  -0.01
  21   1    -0.02  -0.01   0.03     0.02  -0.03   0.05     0.00  -0.00   0.01
  22   1    -0.09   0.01  -0.00     0.04  -0.01  -0.01    -0.01  -0.00   0.02
  23   1     0.01   0.03   0.01    -0.01  -0.00   0.02    -0.02  -0.02  -0.02
  24   1     0.00  -0.04   0.01    -0.04  -0.10   0.00     0.03   0.00   0.11
  25   1    -0.02   0.02   0.02    -0.08   0.05   0.00    -0.02  -0.00  -0.10
  26   1     0.00   0.02  -0.00     0.01   0.06  -0.00    -0.00  -0.00  -0.01
  27   1     0.01   0.03   0.01     0.06   0.10  -0.03    -0.02  -0.01  -0.11
  28   1     0.03  -0.03   0.00     0.10  -0.05  -0.02     0.02   0.00   0.12
                     28                     29                     30
                        a                      a                      a 
 Frequencies --   701.2258               768.4142               796.9716
 Red. masses --    10.7507                11.9714                 5.1682
 Frc consts  --     0.0000                 0.0000                 0.0000
 IR Inten    --    42.4719                26.0325                58.1487
 Raman Activ --     0.0000                 0.0000                 0.0000
 Depolar     --     0.0000                 0.0000                 0.0000
 Atom AN      X      Y      Z        X      Y      Z        X      Y      Z
   1   6     0.35  -0.10  -0.04    -0.02  -0.01  -0.00    -0.01   0.01  -0.00
   2   6     0.13   0.05  -0.06    -0.01  -0.07  -0.01    -0.00   0.01   0.00
   3   8    -0.23  -0.06   0.03    -0.01  -0.10  -0.02     0.01   0.02   0.00
   4   8    -0.19   0.28   0.17    -0.15   0.14   0.04     0.06  -0.06  -0.01
   5   6    -0.40  -0.18   0.01     0.14   0.03  -0.01    -0.02  -0.01   0.02
   6   6    -0.08   0.03  -0.07    -0.01   0.08  -0.12    -0.03   0.01  -0.01
   7   8     0.16   0.03   0.02     0.01   0.07   0.12    -0.01   0.01   0.01
   8   7     0.01  -0.30   0.05     0.43  -0.19  -0.03    -0.01   0.02   0.07
   9   6    -0.00   0.02  -0.04     0.13   0.06  -0.05    -0.07  -0.01  -0.27
  10   6    -0.01   0.03   0.03    -0.23  -0.20   0.08     0.07   0.00   0.22
  11   6    -0.03  -0.01  -0.01    -0.31  -0.03   0.08     0.08   0.00   0.23
  12   6    -0.03  -0.02   0.02     0.06   0.00  -0.03    -0.06  -0.00  -0.28
  13   8    -0.12  -0.01   0.02     0.38   0.15  -0.08    -0.00  -0.01   0.06
  14   6     0.14   0.14  -0.04    -0.16  -0.08   0.04     0.04   0.01   0.18
  15   6     0.14   0.08  -0.02    -0.26   0.14   0.05     0.05   0.00   0.21
  16   1     0.13  -0.05  -0.00    -0.06   0.04   0.01     0.01  -0.01  -0.00
  17   1     0.06  -0.02   0.00     0.02   0.01   0.00    -0.02  -0.00   0.00
  18   1     0.11  -0.04  -0.00     0.04   0.01  -0.00    -0.01  -0.00   0.00
  19   1     0.11  -0.05   0.13    -0.01   0.03  -0.05    -0.00   0.00   0.00
  20   1     0.08   0.05  -0.01    -0.01   0.02  -0.04    -0.01   0.01  -0.00
  21   1    -0.01   0.16  -0.20    -0.00   0.01  -0.01    -0.01   0.02  -0.03
  22   1     0.07  -0.00  -0.18    -0.00   0.02   0.02     0.01  -0.00   0.01
  23   1     0.02  -0.11  -0.13     0.12  -0.10  -0.17    -0.02  -0.02  -0.00
  24   1    -0.01   0.01  -0.01    -0.14  -0.04  -0.02    -0.09   0.01  -0.41
  25   1    -0.01   0.00  -0.00    -0.12  -0.05   0.00    -0.08   0.00  -0.43
  26   1    -0.01   0.01   0.00     0.10   0.04  -0.02    -0.00  -0.00   0.02
  27   1     0.08   0.03  -0.02    -0.06  -0.02   0.01    -0.07  -0.01  -0.33
  28   1     0.05   0.03  -0.01    -0.10   0.00   0.02    -0.07  -0.00  -0.37
                     31                     32                     33
                        a                      a                      a 
 Frequencies --   827.6888               848.2818               855.5051
 Red. masses --    13.1008                 8.6447                 6.3144
 Frc consts  --     0.0000                 0.0000                 0.0000
 IR Inten    --     9.9773                92.0158                46.8731
 Raman Activ --     0.0000                 0.0000                 0.0000
 Depolar     --     0.0000                 0.0000                 0.0000
 Atom AN      X      Y      Z        X      Y      Z        X      Y      Z
   1   6     0.09  -0.08  -0.01    -0.00   0.03  -0.00     0.00   0.02  -0.00
   2   6    -0.01  -0.07  -0.02    -0.02   0.03   0.01    -0.01   0.02   0.01
   3   8    -0.08  -0.11  -0.02     0.02   0.08   0.01     0.02   0.06   0.01
   4   8    -0.38   0.38   0.10     0.21  -0.17  -0.02     0.15  -0.13  -0.01
   5   6     0.10   0.13  -0.06    -0.32   0.01   0.06    -0.24   0.00   0.04
   6   6     0.17  -0.20   0.35    -0.07  -0.05   0.11    -0.04  -0.03   0.05
   7   8     0.13  -0.23  -0.40     0.02  -0.07  -0.13     0.01  -0.05  -0.07
   8   7    -0.06   0.25   0.03    -0.09   0.15   0.02    -0.06   0.10   0.03
   9   6     0.03   0.01  -0.03     0.10   0.03   0.00     0.07   0.01  -0.03
  10   6     0.02  -0.08  -0.00     0.05  -0.27   0.13    -0.02  -0.22  -0.12
  11   6     0.04  -0.03   0.02     0.10  -0.18   0.09     0.01  -0.15  -0.21
  12   6    -0.01   0.01  -0.02    -0.03  -0.01   0.04    -0.04  -0.01  -0.02
  13   8     0.07   0.02  -0.01     0.22   0.07  -0.05     0.18   0.06  -0.03
  14   6    -0.05  -0.01   0.03    -0.11   0.17  -0.12    -0.03   0.14   0.17
  15   6    -0.05   0.01   0.03    -0.19   0.20  -0.15    -0.08   0.18   0.23
  16   1    -0.07   0.05   0.01     0.05  -0.04  -0.01     0.04  -0.03  -0.01
  17   1     0.09   0.02   0.00    -0.05  -0.01   0.00    -0.03  -0.01  -0.00
  18   1     0.12   0.01  -0.01    -0.04  -0.01   0.01    -0.03  -0.01   0.00
  19   1     0.01  -0.04   0.07     0.05  -0.04   0.06     0.04  -0.03   0.04
  20   1     0.02  -0.07   0.10     0.06  -0.05   0.08     0.05  -0.03   0.05
  21   1     0.04  -0.11   0.17    -0.01   0.06  -0.11    -0.01   0.04  -0.07
  22   1     0.00  -0.04  -0.04     0.05  -0.03  -0.06     0.03  -0.02  -0.04
  23   1    -0.00   0.09   0.04     0.01   0.08   0.02     0.01   0.05   0.01
  24   1    -0.01  -0.02  -0.01    -0.11  -0.06  -0.24     0.02  -0.06   0.24
  25   1     0.01   0.00  -0.05     0.01  -0.02  -0.21     0.13  -0.01   0.41
  26   1     0.01  -0.00  -0.00     0.05   0.01  -0.01     0.04   0.01  -0.01
  27   1    -0.03  -0.00  -0.04     0.07   0.05   0.25    -0.04   0.03  -0.30
  28   1    -0.04  -0.01  -0.03    -0.02   0.02   0.35    -0.15   0.01  -0.40
                     34                     35                     36
                        a                      a                      a 
 Frequencies --   888.1711               902.9295               906.7614
 Red. masses --     2.8875                10.0455                 4.2797
 Frc consts  --     0.0000                 0.0000                 0.0000
 IR Inten    --     1.3142                47.1205                 9.5552
 Raman Activ --     0.0000                 0.0000                 0.0000
 Depolar     --     0.0000                 0.0000                 0.0000
 Atom AN      X      Y      Z        X      Y      Z        X      Y      Z
   1   6    -0.03  -0.00  -0.00     0.14  -0.03   0.00     0.04  -0.01   0.00
   2   6     0.00  -0.02  -0.00     0.01   0.07  -0.00     0.01   0.02  -0.00
   3   8     0.00  -0.02  -0.00    -0.04   0.06   0.02    -0.01   0.01   0.00
   4   8     0.01   0.03   0.01    -0.27  -0.01  -0.03    -0.10   0.01  -0.01
   5   6     0.02   0.03   0.02     0.30  -0.19  -0.12     0.12  -0.06  -0.04
   6   6    -0.02  -0.00   0.04     0.09  -0.02  -0.17     0.02  -0.01  -0.05
   7   8     0.01  -0.01  -0.05    -0.05   0.12   0.24    -0.02   0.04   0.07
   8   7     0.04   0.00   0.00    -0.29  -0.04   0.04    -0.09  -0.01   0.00
   9   6     0.00   0.00   0.02    -0.07  -0.02   0.03    -0.03  -0.00   0.00
  10   6     0.05   0.07   0.24     0.06  -0.21  -0.03     0.06  -0.03   0.19
  11   6    -0.06   0.06  -0.20     0.21  -0.23  -0.00     0.02  -0.05  -0.21
  12   6     0.01   0.01  -0.02    -0.07  -0.01   0.01    -0.02  -0.00  -0.01
  13   8    -0.06  -0.02  -0.00     0.13   0.04  -0.03     0.02   0.00   0.01
  14   6    -0.02  -0.07  -0.14    -0.03   0.28  -0.11     0.06   0.07   0.28
  15   6     0.05  -0.06   0.08    -0.04   0.13   0.09    -0.05   0.01  -0.25
  16   1    -0.02   0.01   0.00     0.04  -0.01  -0.01     0.01  -0.00  -0.00
  17   1    -0.00   0.00   0.00     0.07  -0.01  -0.01     0.02  -0.00  -0.00
  18   1     0.00   0.00  -0.00     0.03  -0.00  -0.01     0.01   0.00  -0.00
  19   1    -0.01   0.00  -0.01    -0.05   0.03   0.03    -0.02   0.01   0.01
  20   1    -0.00  -0.02   0.02    -0.10   0.15  -0.18    -0.04   0.05  -0.06
  21   1    -0.00   0.00  -0.02     0.02  -0.05   0.16     0.00  -0.01   0.05
  22   1     0.01  -0.00   0.01    -0.05   0.04   0.06    -0.01   0.01   0.02
  23   1     0.02   0.00  -0.01    -0.16  -0.07   0.09    -0.05  -0.03   0.03
  24   1    -0.14   0.03  -0.57     0.00  -0.06  -0.01    -0.08  -0.00  -0.32
  25   1     0.09   0.01   0.48     0.09  -0.02  -0.06     0.10   0.00   0.30
  26   1    -0.02  -0.01   0.00     0.03   0.01  -0.00     0.00   0.00  -0.01
  27   1     0.06  -0.00   0.40     0.09   0.08   0.21    -0.10   0.00  -0.51
  28   1    -0.03  -0.01  -0.28    -0.08   0.00  -0.15     0.08   0.00   0.45
                     37                     38                     39
                        a                      a                      a 
 Frequencies --   967.1032               985.5865               996.8445
 Red. masses --    12.7679                 6.9514                 6.6323
 Frc consts  --     0.0000                 0.0000                 0.0000
 IR Inten    --    42.7798                14.6885               130.0417
 Raman Activ --     0.0000                 0.0000                 0.0000
 Depolar     --     0.0000                 0.0000                 0.0000
 Atom AN      X      Y      Z        X      Y      Z        X      Y      Z
   1   6     0.39  -0.03   0.03    -0.10   0.03  -0.02     0.02  -0.40   0.18
   2   6    -0.19   0.15  -0.02     0.07  -0.04   0.02    -0.25   0.04  -0.28
   3   8    -0.03   0.35   0.08     0.00  -0.10  -0.02    -0.07   0.17   0.10
   4   8    -0.36  -0.49  -0.06     0.11   0.11   0.03     0.27   0.04   0.04
   5   6    -0.02  -0.01  -0.09    -0.06  -0.13  -0.19    -0.08  -0.03   0.03
   6   6     0.03  -0.06   0.07    -0.05  -0.37  -0.08     0.01  -0.01  -0.05
   7   8     0.00   0.00  -0.00    -0.01   0.07   0.17    -0.01   0.01   0.03
   8   7     0.13   0.13  -0.01     0.02   0.31  -0.03     0.01   0.04  -0.01
   9   6     0.13   0.04  -0.03     0.10   0.05  -0.01    -0.01  -0.00  -0.00
  10   6    -0.00  -0.01   0.00     0.02  -0.09  -0.01    -0.00   0.01   0.00
  11   6    -0.13   0.16   0.02    -0.08   0.15   0.01     0.01  -0.01  -0.00
  12   6     0.05   0.02  -0.01     0.04   0.02  -0.01    -0.01  -0.00   0.00
  13   8    -0.06  -0.02   0.01    -0.05  -0.01   0.01     0.00   0.00  -0.00
  14   6    -0.01  -0.21   0.01    -0.01  -0.22   0.01    -0.00   0.00   0.00
  15   6    -0.02   0.02   0.00    -0.03   0.05   0.01     0.01  -0.01  -0.00
  16   1     0.23  -0.10  -0.06    -0.04   0.02   0.02    -0.38   0.19  -0.06
  17   1     0.13  -0.06  -0.04    -0.07   0.02   0.02     0.54  -0.03  -0.08
  18   1    -0.00  -0.01  -0.01    -0.00  -0.01   0.01     0.12   0.13  -0.10
  19   1     0.01  -0.02   0.03     0.15  -0.17   0.47    -0.02   0.01   0.01
  20   1     0.01  -0.01   0.01    -0.04   0.29  -0.26    -0.04   0.04  -0.05
  21   1     0.01  -0.01   0.03     0.01   0.17   0.02     0.00  -0.00   0.03
  22   1    -0.01   0.00   0.05    -0.04   0.02   0.09    -0.00   0.00   0.01
  23   1     0.09   0.08  -0.03     0.03   0.10  -0.01     0.01   0.01  -0.01
  24   1     0.02  -0.00  -0.01     0.06  -0.03  -0.01    -0.01   0.00  -0.00
  25   1    -0.03   0.05   0.01     0.01   0.08  -0.00     0.00  -0.00   0.00
  26   1    -0.02  -0.01   0.00    -0.03  -0.02   0.01    -0.01  -0.00   0.00
  27   1     0.00  -0.06   0.01     0.01  -0.06   0.00    -0.01   0.00   0.00
  28   1     0.02   0.03  -0.01     0.03   0.05  -0.01     0.00  -0.00   0.00
                     40                     41                     42
                        a                      a                      a 
 Frequencies --  1001.2180              1017.5528              1053.0518
 Red. masses --     6.2771                 7.7687                 5.5593
 Frc consts  --     0.0000                 0.0000                 0.0000
 IR Inten    --    53.6077                23.3268               152.0980
 Raman Activ --     0.0000                 0.0000                 0.0000
 Depolar     --     0.0000                 0.0000                 0.0000
 Atom AN      X      Y      Z        X      Y      Z        X      Y      Z
   1   6    -0.07   0.22   0.38     0.05   0.02  -0.01     0.02   0.07   0.01
   2   6     0.17   0.05  -0.39    -0.04   0.00   0.01    -0.04  -0.06   0.00
   3   8     0.07  -0.21   0.04     0.00   0.04   0.01     0.03  -0.04  -0.01
   4   8    -0.11   0.02   0.07    -0.02  -0.08   0.00     0.08   0.07  -0.03
   5   6     0.02   0.02  -0.01    -0.07   0.05  -0.10    -0.45  -0.00  -0.01
   6   6    -0.02  -0.02   0.02    -0.00  -0.15   0.01     0.38  -0.01  -0.09
   7   8     0.02  -0.01  -0.02     0.02   0.02   0.02    -0.00  -0.03   0.12
   8   7    -0.01  -0.02   0.00     0.17   0.09  -0.04     0.03  -0.03   0.03
   9   6    -0.00  -0.00  -0.00    -0.00  -0.00  -0.01     0.03  -0.01  -0.02
  10   6    -0.00   0.00   0.00    -0.10   0.38   0.01     0.00   0.02   0.01
  11   6     0.00  -0.01   0.00     0.08  -0.30  -0.01    -0.01   0.03   0.00
  12   6     0.00  -0.00  -0.00    -0.09  -0.04   0.02     0.00   0.01  -0.00
  13   8     0.00  -0.00  -0.00     0.11   0.04  -0.02    -0.01   0.01   0.00
  14   6     0.00   0.01  -0.00    -0.11   0.29   0.02     0.01  -0.03  -0.00
  15   6    -0.00  -0.00   0.00     0.15  -0.34  -0.02     0.00   0.01  -0.00
  16   1     0.14  -0.07  -0.20     0.05  -0.02  -0.00     0.08  -0.04  -0.01
  17   1     0.21  -0.16  -0.14    -0.02  -0.01   0.00    -0.06  -0.01  -0.00
  18   1    -0.61   0.13  -0.03    -0.00  -0.01   0.00    -0.08  -0.01   0.01
  19   1     0.02  -0.02   0.03     0.06  -0.06   0.17    -0.20   0.13  -0.11
  20   1     0.02  -0.00   0.01    -0.00   0.08  -0.07    -0.23   0.09  -0.19
  21   1    -0.00   0.02  -0.03     0.01   0.05   0.02     0.06  -0.29   0.48
  22   1    -0.01   0.00   0.00    -0.03   0.01   0.09     0.07  -0.03  -0.21
  23   1    -0.00  -0.01  -0.01     0.11   0.08  -0.05     0.13   0.10  -0.03
  24   1     0.00  -0.00  -0.00    -0.24   0.14   0.06    -0.10   0.02  -0.02
  25   1    -0.00  -0.00  -0.00    -0.13  -0.25   0.03     0.00   0.02   0.00
  26   1     0.00   0.00  -0.00     0.03   0.01  -0.00    -0.02  -0.02   0.01
  27   1    -0.00   0.00  -0.00    -0.26   0.13   0.05     0.01  -0.01  -0.00
  28   1    -0.00  -0.00  -0.00    -0.10  -0.25   0.02     0.02   0.03  -0.00
                     43                     44                     45
                        a                      a                      a 
 Frequencies --  1082.1122              1106.9933              1124.3114
 Red. masses --     6.4397                 4.0347                10.1888
 Frc consts  --     0.0000                 0.0000                 0.0000
 IR Inten    --   189.7198               363.4305               220.2635
 Raman Activ --     0.0000                 0.0000                 0.0000
 Depolar     --     0.0000                 0.0000                 0.0000
 Atom AN      X      Y      Z        X      Y      Z        X      Y      Z
   1   6     0.02   0.01  -0.01    -0.02  -0.01   0.00    -0.08  -0.04  -0.00
   2   6    -0.07  -0.02   0.00     0.03   0.01  -0.00     0.15   0.07  -0.01
   3   8    -0.00   0.01   0.00    -0.00  -0.00   0.00    -0.02  -0.04   0.01
   4   8     0.07  -0.02   0.01    -0.01   0.00  -0.00     0.05  -0.01   0.05
   5   6    -0.16   0.36  -0.10     0.02  -0.07  -0.03    -0.08  -0.11  -0.74
   6   6     0.08  -0.12   0.06     0.01   0.01   0.01     0.04   0.05   0.29
   7   8     0.14   0.11  -0.16    -0.04  -0.02   0.06    -0.06   0.12   0.26
   8   7    -0.05  -0.36  -0.01    -0.00   0.09   0.00    -0.00  -0.02   0.07
   9   6    -0.08  -0.10   0.01     0.05  -0.09  -0.01    -0.04  -0.05   0.00
  10   6     0.01  -0.00   0.00     0.02   0.11   0.00     0.00   0.02   0.01
  11   6    -0.01   0.04   0.00    -0.07   0.15   0.01    -0.00  -0.01   0.00
  12   6     0.03  -0.04  -0.01     0.09  -0.19  -0.02    -0.03  -0.01   0.00
  13   8    -0.03  -0.05   0.01    -0.10  -0.28   0.03     0.03   0.04  -0.01
  14   6     0.05   0.09  -0.01    -0.05   0.15   0.00     0.01   0.02  -0.00
  15   6    -0.07   0.09   0.01    -0.09   0.04   0.02    -0.02   0.02   0.00
  16   1     0.03  -0.01  -0.00    -0.02   0.01   0.00    -0.09   0.04   0.01
  17   1    -0.01  -0.00   0.00     0.01   0.00   0.00     0.01   0.02   0.01
  18   1    -0.00  -0.00   0.00     0.01   0.00  -0.00     0.02   0.01  -0.01
  19   1     0.00  -0.02   0.11    -0.01   0.01  -0.02     0.02   0.00  -0.12
  20   1    -0.03   0.03  -0.04    -0.01  -0.00   0.00     0.09  -0.22   0.24
  21   1     0.02  -0.03   0.12     0.00  -0.01  -0.00     0.01  -0.10  -0.03
  22   1    -0.20   0.11   0.64     0.04  -0.02  -0.15     0.00   0.02  -0.00
  23   1     0.02  -0.07  -0.05     0.03   0.06   0.02     0.12   0.10  -0.05
  24   1     0.08  -0.02  -0.03     0.17   0.00  -0.05     0.05  -0.00  -0.03
  25   1    -0.00   0.01   0.00    -0.03   0.04   0.00    -0.03  -0.04   0.01
  26   1     0.11   0.09  -0.02     0.61   0.50  -0.13    -0.07  -0.06   0.02
  27   1     0.15  -0.00  -0.03     0.03   0.03  -0.00     0.10  -0.01  -0.02
  28   1    -0.01   0.04   0.00    -0.18  -0.16   0.04    -0.00   0.01  -0.00
                     46                     47                     48
                        a                      a                      a 
 Frequencies --  1137.4093              1189.1955              1194.8661
 Red. masses --     2.6775                 2.6155                10.4378
 Frc consts  --     0.0000                 0.0000                 0.0000
 IR Inten    --    62.7715               108.2287               763.4084
 Raman Activ --     0.0000                 0.0000                 0.0000
 Depolar     --     0.0000                 0.0000                 0.0000
 Atom AN      X      Y      Z        X      Y      Z        X      Y      Z
   1   6    -0.01  -0.00  -0.00    -0.05  -0.02  -0.00    -0.23  -0.11  -0.01
   2   6     0.02   0.01  -0.00     0.14   0.06   0.01     0.66   0.29   0.02
   3   8    -0.00  -0.01   0.00    -0.02   0.01   0.00    -0.09   0.06   0.02
   4   8     0.02  -0.00   0.01    -0.05  -0.05  -0.02    -0.23  -0.28  -0.06
   5   6    -0.04   0.01  -0.12    -0.02   0.01   0.06    -0.08   0.12   0.14
   6   6     0.00   0.02   0.04     0.03  -0.01  -0.01     0.04  -0.04  -0.05
   7   8     0.01   0.04   0.02     0.00  -0.01  -0.02     0.03  -0.03  -0.06
   8   7    -0.01  -0.08   0.01    -0.02  -0.02  -0.00    -0.04  -0.08   0.00
   9   6    -0.01   0.15  -0.00     0.02  -0.07  -0.01     0.07  -0.00  -0.02
  10   6    -0.06  -0.15   0.01     0.10  -0.05  -0.02    -0.03   0.01   0.00
  11   6     0.10  -0.05  -0.02    -0.04  -0.06   0.01     0.01   0.03  -0.00
  12   6     0.05   0.07  -0.01     0.16   0.01  -0.03     0.03   0.03  -0.01
  13   8    -0.08  -0.12   0.02    -0.10  -0.02   0.02    -0.01  -0.00   0.00
  14   6    -0.06  -0.09   0.02    -0.03   0.08   0.00     0.02  -0.02  -0.00
  15   6     0.12   0.00  -0.03    -0.02   0.17  -0.00    -0.02  -0.02   0.01
  16   1    -0.01   0.01   0.00    -0.06   0.03   0.01    -0.28   0.15   0.06
  17   1     0.00   0.00   0.00     0.01   0.01   0.00     0.04   0.05   0.02
  18   1     0.00   0.00  -0.00     0.01   0.00  -0.00     0.06   0.02  -0.01
  19   1     0.01  -0.00  -0.02    -0.03   0.01  -0.01    -0.01  -0.00   0.04
  20   1     0.03  -0.04   0.05    -0.03   0.02  -0.03    -0.02   0.05  -0.05
  21   1     0.00  -0.02  -0.00     0.00  -0.01   0.02     0.01  -0.00   0.06
  22   1    -0.02   0.02   0.07    -0.00  -0.00  -0.01     0.00  -0.01  -0.01
  23   1    -0.02  -0.04  -0.01     0.06   0.06  -0.01     0.07   0.06  -0.00
  24   1    -0.28   0.01   0.08     0.43  -0.09  -0.11    -0.20   0.04   0.05
  25   1     0.27   0.26  -0.06    -0.40  -0.45   0.09     0.05   0.06  -0.01
  26   1     0.20   0.17  -0.05    -0.05  -0.03   0.01    -0.01  -0.01   0.00
  27   1    -0.60   0.10   0.12    -0.39   0.11   0.08     0.09  -0.02  -0.02
  28   1     0.28   0.28  -0.06     0.18   0.26  -0.04    -0.05  -0.06   0.01
                     49                     50                     51
                        a                      a                      a 
 Frequencies --  1209.0510              1259.2208              1268.2550
 Red. masses --     6.1174                 8.3733                 6.7950
 Frc consts  --     0.0000                 0.0000                 0.0000
 IR Inten    --   224.7973               360.7660                49.7682
 Raman Activ --     0.0000                 0.0000                 0.0000
 Depolar     --     0.0000                 0.0000                 0.0000
 Atom AN      X      Y      Z        X      Y      Z        X      Y      Z
   1   6    -0.00  -0.00  -0.00    -0.02  -0.01  -0.00    -0.01  -0.01  -0.00
   2   6     0.02   0.01   0.00     0.13   0.06   0.01     0.03   0.00  -0.01
   3   8    -0.00   0.01   0.00    -0.01  -0.03  -0.01    -0.01   0.06   0.01
   4   8    -0.04  -0.03  -0.01    -0.05   0.03  -0.00     0.01  -0.10  -0.01
   5   6     0.09   0.03   0.09    -0.18  -0.44   0.10    -0.03   0.49  -0.14
   6   6    -0.03  -0.04  -0.03     0.06   0.12  -0.01     0.03  -0.12   0.04
   7   8    -0.01  -0.04  -0.01     0.08   0.08  -0.13    -0.06  -0.08   0.11
   8   7     0.14   0.02  -0.03     0.03   0.16  -0.01     0.06  -0.12   0.02
   9   6    -0.28  -0.23   0.05     0.12   0.22  -0.02    -0.04   0.22   0.02
  10   6    -0.05   0.13   0.01     0.07   0.09  -0.02     0.05   0.04  -0.01
  11   6     0.01  -0.05  -0.00    -0.16  -0.06   0.03    -0.12  -0.11   0.02
  12   6    -0.38  -0.13   0.08    -0.31  -0.14   0.06    -0.21  -0.09   0.04
  13   8     0.21   0.05  -0.04     0.17   0.07  -0.04     0.12   0.06  -0.03
  14   6    -0.12   0.09   0.02    -0.04  -0.11   0.01     0.05  -0.06  -0.01
  15   6     0.03  -0.05  -0.01     0.15  -0.05  -0.03     0.07  -0.06  -0.02
  16   1    -0.01   0.00   0.00    -0.05   0.03   0.01    -0.02   0.01   0.00
  17   1     0.00   0.00   0.00    -0.02   0.01   0.01     0.01  -0.00  -0.01
  18   1     0.01  -0.00   0.00    -0.02   0.01  -0.01     0.01  -0.01   0.00
  19   1     0.01  -0.02   0.04    -0.07   0.06  -0.12     0.01  -0.03   0.11
  20   1    -0.01   0.04  -0.04    -0.06  -0.06   0.02     0.00   0.04  -0.03
  21   1    -0.00   0.03  -0.02     0.00  -0.08   0.01     0.01   0.03   0.05
  22   1     0.02  -0.02  -0.08    -0.12   0.06   0.36     0.10  -0.05  -0.31
  23   1     0.28   0.23  -0.08    -0.10  -0.06   0.02    -0.27  -0.31   0.02
  24   1     0.17  -0.00  -0.05     0.31  -0.03  -0.08     0.37  -0.06  -0.09
  25   1     0.13   0.13  -0.03     0.07   0.12  -0.01     0.11   0.13  -0.02
  26   1     0.09   0.05  -0.02     0.02   0.00  -0.01    -0.00  -0.01   0.00
  27   1     0.20  -0.03  -0.04    -0.13  -0.01   0.03    -0.12   0.01   0.02
  28   1     0.36   0.39  -0.07    -0.04  -0.12   0.01    -0.05  -0.10   0.01
                     52                     53                     54
                        a                      a                      a 
 Frequencies --  1292.1930              1345.3978              1354.9145
 Red. masses --     5.4056                10.3920                 3.7863
 Frc consts  --     0.0000                 0.0000                 0.0000
 IR Inten    --     9.5341                68.4339                91.7396
 Raman Activ --     0.0000                 0.0000                 0.0000
 Depolar     --     0.0000                 0.0000                 0.0000
 Atom AN      X      Y      Z        X      Y      Z        X      Y      Z
   1   6     0.00  -0.00   0.00     0.02  -0.01  -0.00    -0.39   0.18   0.02
   2   6     0.00  -0.00  -0.00     0.02   0.00  -0.00     0.03   0.02  -0.00
   3   8    -0.00  -0.00   0.00    -0.01   0.01   0.00     0.01  -0.04  -0.01
   4   8     0.01   0.00   0.00    -0.01  -0.01   0.00     0.02   0.02   0.00
   5   6    -0.04   0.03  -0.05    -0.05   0.03  -0.04     0.02   0.01   0.01
   6   6    -0.00   0.02  -0.00     0.01   0.01  -0.01    -0.00  -0.01   0.01
   7   8    -0.00   0.01   0.02     0.00  -0.00   0.01    -0.00   0.00   0.00
   8   7    -0.10   0.02   0.02     0.03   0.07  -0.00    -0.12  -0.07   0.02
   9   6     0.27   0.06  -0.05     0.19  -0.34  -0.01     0.11  -0.02  -0.03
  10   6     0.30  -0.01  -0.06    -0.32   0.07   0.07     0.02   0.04  -0.00
  11   6    -0.10   0.05   0.02     0.23   0.29  -0.05    -0.04   0.04   0.01
  12   6    -0.29   0.19   0.05     0.03  -0.35   0.00    -0.05  -0.08   0.01
  13   8     0.09  -0.05  -0.02     0.06   0.05  -0.01     0.04   0.02  -0.01
  14   6    -0.13  -0.07   0.03    -0.38   0.02   0.08    -0.03  -0.03   0.01
  15   6     0.01  -0.19   0.00     0.29   0.25  -0.07     0.06   0.05  -0.01
  16   1    -0.00   0.00  -0.00    -0.03   0.03   0.00     0.34  -0.27   0.02
  17   1    -0.00  -0.00  -0.00    -0.03   0.00   0.01     0.44  -0.13  -0.27
  18   1    -0.00   0.00  -0.00    -0.03   0.01  -0.01     0.45  -0.18   0.20
  19   1     0.02  -0.01   0.01     0.01  -0.00   0.03    -0.00   0.00  -0.01
  20   1     0.02  -0.02   0.03     0.01  -0.03   0.02     0.00   0.01  -0.01
  21   1    -0.00  -0.02   0.03    -0.00  -0.02   0.03     0.00   0.01  -0.01
  22   1     0.00  -0.00  -0.00     0.00  -0.00  -0.01    -0.00   0.00   0.00
  23   1    -0.27  -0.22   0.07    -0.26  -0.23   0.06     0.05   0.06   0.01
  24   1    -0.27   0.07   0.07    -0.04   0.01   0.01    -0.02   0.02   0.00
  25   1    -0.28  -0.26   0.06    -0.03  -0.02   0.00    -0.01   0.02   0.00
  26   1     0.19   0.14  -0.04    -0.09  -0.08   0.02    -0.01  -0.01   0.00
  27   1     0.24  -0.08  -0.05    -0.01  -0.02   0.01    -0.04  -0.00   0.01
  28   1     0.26   0.23  -0.06     0.05   0.02  -0.01    -0.02  -0.02   0.00
                     55                     56                     57
                        a                      a                      a 
 Frequencies --  1365.8647              1381.4078              1416.6004
 Red. masses --     9.3847                 3.6226                 1.7800
 Frc consts  --     0.0000                 0.0000                 0.0000
 IR Inten    --   110.0313                26.7583                31.6270
 Raman Activ --     0.0000                 0.0000                 0.0000
 Depolar     --     0.0000                 0.0000                 0.0000
 Atom AN      X      Y      Z        X      Y      Z        X      Y      Z
   1   6    -0.11   0.05   0.00     0.02  -0.00   0.00     0.13   0.09  -0.18
   2   6     0.09   0.02  -0.00    -0.02  -0.02  -0.00    -0.03  -0.04  -0.05
   3   8    -0.01   0.01   0.00     0.00   0.01   0.00    -0.01   0.05   0.01
   4   8    -0.05  -0.04  -0.00     0.01   0.01  -0.00     0.01   0.01   0.01
   5   6    -0.16  -0.11  -0.00     0.05  -0.00   0.05     0.01  -0.00  -0.00
   6   6     0.01   0.07  -0.07    -0.15   0.21  -0.35    -0.01   0.00   0.00
   7   8     0.03   0.00  -0.03    -0.01  -0.00   0.00    -0.00   0.00   0.00
   8   7     0.44   0.27  -0.07    -0.09  -0.05   0.01    -0.01  -0.00   0.00
   9   6    -0.34   0.02   0.11     0.04  -0.02  -0.02     0.00  -0.01  -0.00
  10   6    -0.16  -0.11   0.03     0.08   0.03  -0.01     0.02   0.01  -0.00
  11   6     0.19  -0.08  -0.04    -0.08   0.01   0.02    -0.02   0.00   0.00
  12   6     0.18   0.21  -0.04    -0.04  -0.07   0.01    -0.00  -0.01   0.00
  13   8    -0.12  -0.08   0.03     0.02   0.02  -0.01     0.00   0.00  -0.00
  14   6     0.00   0.09  -0.00     0.06  -0.01  -0.01     0.01   0.00  -0.00
  15   6    -0.13  -0.16   0.03    -0.01   0.05   0.00    -0.01   0.01   0.00
  16   1     0.06  -0.05   0.02    -0.01   0.00  -0.01    -0.17   0.17   0.59
  17   1     0.11  -0.05  -0.08    -0.02  -0.00   0.01     0.19  -0.09  -0.15
  18   1     0.11  -0.07   0.06    -0.01   0.01  -0.01    -0.35  -0.51   0.27
  19   1     0.03  -0.00   0.10     0.25  -0.09   0.44     0.01  -0.00  -0.01
  20   1     0.00  -0.11   0.06     0.23  -0.35   0.27     0.00   0.00  -0.00
  21   1    -0.00  -0.09   0.10    -0.04  -0.23   0.42    -0.00  -0.01  -0.00
  22   1    -0.02   0.01   0.06     0.01  -0.00  -0.03    -0.00   0.00   0.00
  23   1    -0.25  -0.29  -0.00     0.07   0.08  -0.01     0.01   0.01  -0.00
  24   1     0.10  -0.06  -0.02     0.00   0.01  -0.02    -0.01   0.00   0.00
  25   1     0.03  -0.05  -0.00    -0.00   0.02   0.00    -0.00   0.00   0.00
  26   1     0.03   0.04  -0.01    -0.02  -0.01   0.00    -0.00  -0.00   0.00
  27   1     0.16  -0.01  -0.03    -0.07   0.02   0.01    -0.01   0.00   0.00
  28   1     0.07   0.08  -0.01    -0.03  -0.02   0.01    -0.00   0.00   0.00
                     58                     59                     60
                        a                      a                      a 
 Frequencies --  1418.7383              1434.7979              1455.2843
 Red. masses --     1.6277                 9.5159                 1.6401
 Frc consts  --     0.0000                 0.0000                 0.0000
 IR Inten    --    32.9890               117.9164                 5.1907
 Raman Activ --     0.0000                 0.0000                 0.0000
 Depolar     --     0.0000                 0.0000                 0.0000
 Atom AN      X      Y      Z        X      Y      Z        X      Y      Z
   1   6    -0.13  -0.13  -0.13    -0.02  -0.00   0.00    -0.00  -0.00   0.00
   2   6    -0.01   0.03  -0.01     0.02   0.01   0.00     0.01  -0.01  -0.01
   3   8     0.02  -0.05  -0.01    -0.00  -0.00   0.00    -0.01   0.01   0.00
   4   8    -0.01  -0.01   0.00    -0.01  -0.01   0.00    -0.00  -0.00  -0.00
   5   6    -0.00   0.00   0.00    -0.03  -0.03  -0.02    -0.01   0.05   0.03
   6   6     0.00   0.00  -0.01     0.01   0.00   0.04    -0.10   0.15   0.12
   7   8     0.00  -0.00  -0.00     0.00  -0.00  -0.01    -0.00  -0.00  -0.00
   8   7     0.01   0.00  -0.00     0.09   0.17  -0.02    -0.01  -0.02   0.00
   9   6    -0.00   0.01   0.00     0.04  -0.37   0.02     0.00   0.03  -0.00
  10   6    -0.01  -0.01   0.00     0.28   0.19  -0.06    -0.03  -0.01   0.01
  11   6     0.01   0.00  -0.00    -0.32  -0.03   0.07     0.02  -0.00  -0.00
  12   6     0.00   0.01  -0.00     0.12  -0.31  -0.02    -0.01   0.03   0.00
  13   8    -0.00  -0.00   0.00    -0.00   0.08  -0.00    -0.00  -0.01   0.00
  14   6    -0.01  -0.00   0.00     0.29   0.19  -0.06    -0.02  -0.02   0.01
  15   6     0.01  -0.00  -0.00    -0.33   0.00   0.07     0.03   0.00  -0.01
  16   1     0.29  -0.23   0.43     0.01  -0.01  -0.00     0.00  -0.00  -0.01
  17   1     0.31   0.55   0.30     0.01   0.02   0.01     0.00   0.01   0.00
  18   1    -0.18   0.25  -0.21     0.01   0.02  -0.01     0.00   0.01  -0.01
  19   1    -0.00   0.00   0.02     0.03  -0.01  -0.05     0.59  -0.25  -0.15
  20   1    -0.01  -0.02   0.01    -0.04   0.04  -0.03    -0.15   0.24  -0.18
  21   1     0.00  -0.00   0.00    -0.00  -0.04  -0.05    -0.05  -0.61  -0.17
  22   1     0.00  -0.00  -0.00    -0.00  -0.00   0.01     0.01  -0.00  -0.00
  23   1    -0.01  -0.01   0.00    -0.19  -0.17   0.04     0.01   0.01  -0.00
  24   1     0.01  -0.00  -0.00    -0.17   0.10   0.04     0.02  -0.01  -0.01
  25   1    -0.00  -0.00   0.00     0.07   0.17  -0.01    -0.00  -0.01   0.00
  26   1     0.00   0.00  -0.00    -0.11  -0.08   0.02     0.01   0.01  -0.00
  27   1     0.01  -0.00  -0.00    -0.14   0.11   0.03     0.01  -0.01  -0.00
  28   1     0.00  -0.00  -0.00     0.04   0.16  -0.01    -0.00  -0.01   0.00
                     61                     62                     63
                        a                      a                      a 
 Frequencies --  1460.6318              1491.5453              1582.2753
 Red. masses --     1.6298                 9.7152                11.5381
 Frc consts  --     0.0000                 0.0000                 0.0000
 IR Inten    --     2.1124               521.9838                29.4548
 Raman Activ --     0.0000                 0.0000                 0.0000
 Depolar     --     0.0000                 0.0000                 0.0000
 Atom AN      X      Y      Z        X      Y      Z        X      Y      Z
   1   6    -0.00  -0.00   0.00    -0.01  -0.00   0.00    -0.00   0.00   0.00
   2   6     0.01   0.01  -0.00     0.02  -0.00  -0.00     0.00  -0.00  -0.00
   3   8     0.00  -0.01   0.00    -0.01   0.01   0.00    -0.00   0.00   0.00
   4   8    -0.00   0.00   0.00    -0.02  -0.02  -0.00    -0.00  -0.00  -0.00
   5   6    -0.05  -0.04  -0.00    -0.01   0.01  -0.00    -0.00   0.01   0.01
   6   6    -0.19  -0.11   0.01     0.01  -0.01   0.01     0.00  -0.00   0.00
   7   8     0.01   0.00  -0.01     0.00  -0.01  -0.01     0.00   0.00  -0.00
   8   7     0.04   0.02  -0.01     0.17   0.06  -0.02     0.02  -0.04   0.00
   9   6    -0.03  -0.00   0.01    -0.42  -0.14   0.10    -0.20   0.45   0.03
  10   6     0.01  -0.00   0.00     0.21  -0.16  -0.05     0.23  -0.24  -0.05
  11   6     0.01   0.01  -0.00     0.15   0.26  -0.03     0.05   0.36  -0.02
  12   6    -0.01  -0.01   0.00    -0.39  -0.03   0.08     0.13  -0.53  -0.02
  13   8     0.00   0.00  -0.00     0.08   0.00  -0.02     0.01   0.06  -0.00
  14   6     0.01   0.00  -0.00     0.28  -0.19  -0.05    -0.17   0.23   0.03
  15   6    -0.00   0.00  -0.00     0.12   0.29  -0.03    -0.05  -0.29   0.02
  16   1     0.00  -0.00   0.01     0.00  -0.00  -0.00    -0.00  -0.00  -0.00
  17   1     0.01   0.01   0.00     0.00   0.00   0.00    -0.00  -0.00  -0.00
  18   1    -0.01   0.01  -0.00     0.01   0.01  -0.00     0.00  -0.00   0.00
  19   1     0.15  -0.08  -0.44    -0.01   0.00   0.01     0.00  -0.00   0.00
  20   1     0.61   0.36   0.01    -0.03   0.00  -0.01    -0.01   0.00  -0.00
  21   1    -0.01   0.16   0.43     0.00  -0.00  -0.03    -0.00  -0.00  -0.01
  22   1    -0.01   0.00   0.03     0.00  -0.00  -0.00     0.00  -0.00   0.00
  23   1    -0.02  -0.02   0.00     0.00  -0.03  -0.03     0.07   0.05  -0.03
  24   1     0.02  -0.01  -0.02    -0.22   0.00   0.05    -0.09  -0.03   0.03
  25   1    -0.00  -0.00   0.00    -0.17  -0.16   0.04    -0.09  -0.02   0.02
  26   1     0.00   0.00   0.00     0.06   0.05  -0.01    -0.08  -0.06   0.02
  27   1    -0.01   0.00   0.00    -0.20   0.00   0.04     0.04   0.04  -0.01
  28   1    -0.01  -0.00   0.00    -0.18  -0.16   0.04     0.06   0.02  -0.01
                     64                     65                     66
                        a                      a                      a 
 Frequencies --  1622.5144              1700.0342              3032.4404
 Red. masses --    11.6049                13.2550                 1.8069
 Frc consts  --     0.0000                 0.0000                 0.0000
 IR Inten    --     6.4990               703.6767                 0.3048
 Raman Activ --     0.0000                 0.0000                 0.0000
 Depolar     --     0.0000                 0.0000                 0.0000
 Atom AN      X      Y      Z        X      Y      Z        X      Y      Z
   1   6    -0.00   0.00   0.00    -0.08   0.04   0.02    -0.06   0.11  -0.24
   2   6     0.01  -0.02  -0.00     0.29  -0.72  -0.15    -0.00   0.01  -0.00
   3   8    -0.01   0.01   0.00    -0.18   0.54   0.11     0.00  -0.00  -0.00
   4   8    -0.01  -0.01   0.00    -0.01   0.05   0.01     0.00   0.00   0.00
   5   6    -0.00   0.01  -0.00     0.03  -0.04  -0.02    -0.00  -0.00   0.00
   6   6     0.00  -0.00   0.00    -0.00   0.00   0.00    -0.00  -0.00   0.00
   7   8     0.00  -0.00  -0.00    -0.00   0.01   0.01     0.00  -0.00  -0.00
   8   7     0.07   0.01  -0.01    -0.02  -0.00   0.00     0.00  -0.00   0.00
   9   6    -0.29  -0.06   0.07     0.02   0.00  -0.01    -0.00  -0.00  -0.00
  10   6     0.42   0.00  -0.09    -0.01   0.00   0.00     0.00   0.00  -0.00
  11   6    -0.33  -0.25   0.07     0.00   0.00  -0.00     0.00  -0.00  -0.00
  12   6     0.26   0.09  -0.06    -0.00   0.00   0.00     0.00   0.00  -0.00
  13   8    -0.04  -0.02   0.01    -0.00  -0.00   0.00     0.00   0.00   0.00
  14   6    -0.46  -0.01   0.09     0.01   0.00  -0.00     0.00   0.00  -0.00
  15   6     0.37   0.24  -0.08    -0.01  -0.01   0.00     0.00  -0.00  -0.00
  16   1     0.00  -0.00  -0.00     0.05  -0.04  -0.02     0.00   0.03  -0.03
  17   1     0.00   0.00   0.00    -0.02   0.03   0.02     0.23  -0.55   0.74
  18   1     0.00   0.00  -0.00    -0.03   0.04  -0.02    -0.03   0.12   0.14
  19   1    -0.00  -0.00   0.00    -0.01   0.01  -0.01     0.00   0.00   0.00
  20   1    -0.00   0.00  -0.00     0.01  -0.00   0.00     0.00  -0.00  -0.00
  21   1     0.00   0.00  -0.00     0.00   0.01  -0.01    -0.00  -0.00   0.00
  22   1    -0.00  -0.00  -0.00    -0.02   0.02   0.02    -0.00  -0.00   0.00
  23   1     0.01  -0.01  -0.02     0.01   0.01  -0.00    -0.00   0.00  -0.00
  24   1    -0.08   0.03   0.02     0.00   0.00  -0.00    -0.00  -0.00  -0.00
  25   1     0.05   0.08  -0.01     0.00  -0.00  -0.00    -0.00   0.00   0.00
  26   1    -0.01  -0.01   0.00     0.00   0.00  -0.00    -0.00  -0.00  -0.00
  27   1     0.09  -0.05  -0.02    -0.00   0.00   0.00    -0.00  -0.00   0.00
  28   1    -0.04  -0.09   0.01     0.00   0.00  -0.00    -0.00   0.00   0.00
                     67                     68                     69
                        a                      a                      a 
 Frequencies --  3041.3531              3050.5593              3059.7346
 Red. masses --     1.6666                 1.4935                 1.7578
 Frc consts  --     0.0000                 0.0000                 0.0000
 IR Inten    --    16.2329                 0.2092                10.2025
 Raman Activ --     0.0000                 0.0000                 0.0000
 Depolar     --     0.0000                 0.0000                 0.0000
 Atom AN      X      Y      Z        X      Y      Z        X      Y      Z
   1   6    -0.00   0.00   0.00    -0.07   0.11   0.17     0.00  -0.00  -0.01
   2   6    -0.00  -0.00  -0.00    -0.01   0.01   0.00    -0.00  -0.00  -0.00
   3   8     0.00   0.00   0.00     0.00  -0.00  -0.00    -0.00   0.00   0.00
   4   8     0.00   0.00   0.00     0.00   0.00  -0.00    -0.00  -0.00   0.00
   5   6     0.00   0.01  -0.00     0.00  -0.00  -0.00     0.00  -0.00  -0.01
   6   6     0.10   0.22  -0.01     0.00  -0.01  -0.01     0.07  -0.14  -0.21
   7   8    -0.00  -0.00   0.00     0.00  -0.00  -0.00     0.00   0.00  -0.00
   8   7    -0.00  -0.00  -0.00     0.00   0.00   0.00    -0.00   0.00   0.00
   9   6    -0.00  -0.00   0.00    -0.00  -0.00  -0.00     0.00   0.00  -0.00
  10   6     0.00   0.00  -0.00     0.00  -0.00  -0.00    -0.00  -0.00   0.00
  11   6     0.00  -0.00  -0.00     0.00  -0.00  -0.00    -0.00   0.00   0.00
  12   6    -0.00  -0.00   0.00     0.00   0.00  -0.00    -0.00  -0.00   0.00
  13   8     0.00   0.00  -0.00     0.00   0.00  -0.00    -0.00  -0.00   0.00
  14   6    -0.00   0.00  -0.00     0.00   0.00  -0.00     0.00  -0.00   0.00
  15   6     0.00  -0.00  -0.00     0.00  -0.00  -0.00    -0.00   0.00   0.00
  16   1     0.00   0.00   0.00     0.15   0.22   0.01    -0.01  -0.01  -0.00
  17   1     0.00  -0.01   0.01     0.04  -0.10   0.17    -0.00   0.00  -0.00
  18   1     0.00  -0.01  -0.01     0.08  -0.50  -0.76    -0.00   0.02   0.03
  19   1    -0.40  -0.88  -0.02     0.01   0.02  -0.00     0.04   0.04  -0.02
  20   1    -0.01   0.06   0.06    -0.01   0.02   0.03    -0.29   0.48   0.78
  21   1     0.06   0.02   0.00    -0.01  -0.00  -0.00     0.00  -0.02  -0.03
  22   1     0.00   0.01  -0.00    -0.00   0.00   0.00    -0.00  -0.00   0.00
  23   1    -0.00   0.00  -0.00    -0.00  -0.00   0.00    -0.00   0.00  -0.00
  24   1    -0.00  -0.01   0.00    -0.00   0.00  -0.00     0.00   0.01  -0.00
  25   1    -0.00   0.00   0.00    -0.00   0.00   0.00     0.01  -0.01  -0.00
  26   1    -0.00   0.00   0.00     0.00  -0.00   0.00     0.00   0.00  -0.00
  27   1    -0.00  -0.00   0.00    -0.00  -0.00   0.00     0.00   0.00   0.00
  28   1    -0.00   0.00   0.00    -0.00   0.00   0.00     0.00  -0.00  -0.00
                     70                     71                     72
                        a                      a                      a 
 Frequencies --  3070.8467              3072.9961              3074.8198
 Red. masses --     1.8180                 1.8871                 1.7444
 Frc consts  --     0.0000                 0.0000                 0.0000
 IR Inten    --    94.1059                 4.8077                 5.6492
 Raman Activ --     0.0000                 0.0000                 0.0000
 Depolar     --     0.0000                 0.0000                 0.0000
 Atom AN      X      Y      Z        X      Y      Z        X      Y      Z
   1   6     0.00   0.00  -0.00     0.14   0.24   0.03    -0.01  -0.01   0.00
   2   6    -0.00  -0.00  -0.00     0.00   0.01   0.00     0.00   0.00   0.00
   3   8    -0.00   0.00   0.00     0.00  -0.00  -0.00     0.00  -0.00  -0.00
   4   8     0.00   0.00   0.00    -0.00  -0.00  -0.00     0.00   0.00  -0.00
   5   6     0.00  -0.00   0.00    -0.00   0.00   0.00    -0.01   0.00  -0.00
   6   6     0.03  -0.00  -0.00    -0.01   0.00   0.00    -0.26   0.01  -0.00
   7   8     0.00   0.00   0.00     0.00   0.00  -0.00     0.00  -0.00   0.00
   8   7     0.00   0.00  -0.00     0.00  -0.00  -0.00     0.00  -0.00   0.00
   9   6    -0.00   0.00   0.00    -0.00  -0.00   0.00     0.00   0.00  -0.00
  10   6     0.00   0.02  -0.00    -0.00  -0.00   0.00    -0.00  -0.00   0.00
  11   6     0.19  -0.18  -0.04    -0.00   0.00   0.00     0.02  -0.02  -0.00
  12   6     0.01   0.00  -0.00    -0.00  -0.00   0.00     0.00   0.00  -0.00
  13   8    -0.00   0.00   0.00     0.00  -0.00  -0.00    -0.00   0.00   0.00
  14   6    -0.01  -0.02   0.00     0.00   0.00  -0.00    -0.00  -0.00   0.00
  15   6     0.00  -0.00  -0.00     0.00  -0.00  -0.00    -0.00   0.00   0.00
  16   1    -0.01  -0.01   0.00    -0.55  -0.74   0.03     0.02   0.03  -0.00
  17   1    -0.00   0.00  -0.00     0.03  -0.01   0.06    -0.00  -0.00   0.00
  18   1    -0.00   0.00   0.00     0.04  -0.11  -0.21    -0.00  -0.00  -0.00
  19   1     0.00   0.00  -0.00     0.00   0.00   0.00    -0.01   0.04   0.00
  20   1    -0.00   0.01   0.01     0.00  -0.00  -0.01    -0.03   0.00   0.01
  21   1    -0.10   0.01  -0.00     0.03  -0.00   0.00     0.96  -0.07  -0.00
  22   1    -0.00  -0.00  -0.00    -0.00  -0.00  -0.00    -0.00   0.00  -0.00
  23   1     0.00  -0.00   0.00    -0.00  -0.00   0.00    -0.00   0.00  -0.00
  24   1    -0.02  -0.12   0.00     0.00   0.00   0.00     0.00  -0.00   0.00
  25   1    -0.69   0.64   0.14     0.00  -0.00  -0.00    -0.07   0.07   0.01
  26   1    -0.00  -0.00   0.00    -0.00   0.00   0.00    -0.00  -0.00   0.00
  27   1     0.01   0.05  -0.00    -0.00  -0.00   0.00     0.00   0.01  -0.00
  28   1    -0.01   0.01   0.00    -0.00   0.00   0.00     0.01  -0.01  -0.00
                     73                     74                     75
                        a                      a                      a 
 Frequencies --  3084.0940              3103.6615              3121.9131
 Red. masses --     1.7945                 1.8644                 1.8360
 Frc consts  --     0.0000                 0.0000                 0.0000
 IR Inten    --    59.8045                89.6931                45.0635
 Raman Activ --     0.0000                 0.0000                 0.0000
 Depolar     --     0.0000                 0.0000                 0.0000
 Atom AN      X      Y      Z        X      Y      Z        X      Y      Z
   1   6     0.00   0.00   0.00     0.00  -0.00   0.00    -0.00   0.00  -0.00
   2   6    -0.00  -0.00  -0.00    -0.00  -0.00  -0.00    -0.00  -0.00  -0.00
   3   8    -0.00   0.00   0.00    -0.00   0.00   0.00     0.00  -0.00  -0.00
   4   8     0.00   0.00   0.00     0.00   0.00   0.00     0.00   0.00  -0.00
   5   6    -0.00  -0.00  -0.00    -0.00  -0.00  -0.00     0.00   0.00  -0.00
   6   6     0.00   0.00   0.00    -0.00  -0.00  -0.00     0.00   0.00   0.00
   7   8    -0.00  -0.00   0.00     0.00   0.00   0.00    -0.00  -0.00  -0.00
   8   7     0.00  -0.00   0.00     0.00   0.00  -0.00     0.00   0.00  -0.00
   9   6    -0.01  -0.00   0.00    -0.00  -0.00   0.00    -0.01  -0.00   0.00
  10   6     0.00   0.01  -0.00     0.00   0.02  -0.00    -0.05  -0.27   0.01
  11   6    -0.00   0.00   0.00     0.01  -0.01  -0.00     0.03  -0.03  -0.01
  12   6    -0.00  -0.00   0.00     0.01   0.00  -0.00     0.00   0.00  -0.00
  13   8    -0.00   0.00   0.00    -0.00  -0.00   0.00    -0.00  -0.00   0.00
  14   6    -0.02  -0.08   0.01     0.05   0.25  -0.02     0.00   0.01  -0.00
  15   6    -0.19   0.17   0.03    -0.07   0.06   0.01    -0.01   0.01   0.00
  16   1    -0.00  -0.00   0.00     0.00   0.00  -0.00     0.00   0.00  -0.00
  17   1     0.00  -0.00   0.00    -0.00   0.00  -0.00     0.00  -0.00   0.00
  18   1     0.00  -0.00  -0.00    -0.00   0.00   0.00     0.00  -0.00  -0.00
  19   1    -0.00  -0.00   0.00     0.00   0.00   0.00    -0.01  -0.01  -0.00
  20   1     0.00  -0.00  -0.00    -0.00  -0.00   0.00     0.00  -0.00  -0.00
  21   1    -0.01   0.00   0.00    -0.00  -0.00   0.00    -0.01   0.00   0.00
  22   1     0.00   0.00  -0.00     0.00   0.00  -0.00     0.00   0.01   0.00
  23   1     0.00   0.00  -0.00     0.00   0.00   0.00     0.00  -0.00  -0.00
  24   1    -0.01  -0.03   0.00    -0.01  -0.07   0.00     0.17   0.94  -0.02
  25   1     0.01  -0.01  -0.00    -0.04   0.03   0.01    -0.08   0.08   0.02
  26   1     0.00  -0.00  -0.00    -0.01   0.01   0.00    -0.00   0.00   0.00
  27   1     0.06   0.31  -0.02    -0.18  -0.88   0.06    -0.01  -0.04   0.00
  28   1     0.66  -0.61  -0.12     0.23  -0.21  -0.04     0.04  -0.04  -0.01
                     76                     77                     78
                        a                      a                      a 
 Frequencies --  3379.1549              3430.8318              3468.8994
 Red. masses --     1.8651                 1.8283                 1.8663
 Frc consts  --     0.0000                 0.0000                 0.0000
 IR Inten    --   147.4504                31.6719               134.8750
 Raman Activ --     0.0000                 0.0000                 0.0000
 Depolar     --     0.0000                 0.0000                 0.0000
 Atom AN      X      Y      Z        X      Y      Z        X      Y      Z
   1   6    -0.00   0.00  -0.00    -0.00   0.00  -0.00    -0.00  -0.00   0.00
   2   6    -0.00  -0.01  -0.00    -0.00   0.00   0.00     0.00  -0.00  -0.00
   3   8    -0.00   0.00   0.00    -0.00  -0.00  -0.00    -0.00   0.00   0.00
   4   8     0.00   0.00  -0.00     0.00   0.00   0.00    -0.00   0.00   0.00
   5   6    -0.00   0.01   0.01    -0.00   0.00  -0.00     0.00   0.00  -0.00
   6   6     0.00   0.00   0.00    -0.00   0.00   0.00     0.00  -0.00   0.00
   7   8     0.08   0.22  -0.00     0.00   0.00  -0.00     0.00   0.00  -0.00
   8   7     0.00  -0.00   0.00    -0.17   0.17  -0.06    -0.00   0.00  -0.00
   9   6     0.00  -0.00  -0.00    -0.01   0.00  -0.00     0.00   0.00  -0.00
  10   6    -0.00  -0.00  -0.00     0.00  -0.00  -0.00     0.00   0.00  -0.00
  11   6     0.00  -0.00  -0.00    -0.00   0.00   0.00    -0.00   0.00   0.00
  12   6     0.00   0.00  -0.00    -0.00  -0.00   0.00     0.01  -0.00  -0.00
  13   8    -0.00   0.00   0.00    -0.00   0.00   0.00     0.15  -0.18  -0.03
  14   6     0.00   0.00  -0.00    -0.00  -0.00   0.00    -0.00  -0.00   0.00
  15   6    -0.00   0.00   0.00     0.00   0.00  -0.00    -0.00  -0.00   0.00
  16   1     0.00   0.00  -0.00    -0.00  -0.00  -0.00     0.00   0.00  -0.00
  17   1    -0.00   0.00   0.00    -0.00  -0.00   0.00     0.00  -0.00  -0.00
  18   1     0.00  -0.00  -0.00     0.00  -0.00  -0.00     0.00  -0.00  -0.00
  19   1    -0.00  -0.01   0.00    -0.00  -0.00  -0.00    -0.00   0.00  -0.00
  20   1     0.00  -0.00  -0.00    -0.00   0.00   0.00    -0.00   0.00  -0.00
  21   1     0.00   0.00   0.00     0.00  -0.00   0.00    -0.00   0.00  -0.00
  22   1    -0.33  -0.91  -0.01    -0.01  -0.02  -0.00    -0.00  -0.00  -0.00
  23   1    -0.01   0.01  -0.00     0.67  -0.66   0.23     0.01  -0.01   0.00
  24   1     0.00   0.01   0.00    -0.00  -0.00  -0.00    -0.00  -0.00   0.00
  25   1     0.00  -0.00  -0.00     0.00  -0.00  -0.00     0.00   0.00  -0.00
  26   1     0.00  -0.00  -0.00     0.01  -0.01  -0.00    -0.63   0.73   0.11
  27   1     0.00  -0.00   0.00     0.00   0.00  -0.00     0.00   0.01  -0.00
  28   1     0.00  -0.00  -0.00     0.00  -0.00  -0.00    -0.00   0.00   0.00
