 Entering Gaussian System
 *********************************************
 Gaussian 98:
 frequency output generated by the xtb code
 *********************************************
                         Standard orientation:
 --------------------------------------------------------------------
  Center     Atomic     Atomic              Coordinates (Angstroms)
  Number     Number      Type              X           Y           Z
 --------------------------------------------------------------------
    1          8             0        3.867217    0.365102    0.000103
    2          8             0       -2.618348    1.377127    0.001874
    3          7             0       -1.587225   -0.660479    0.000567
    4          6             0       -0.222926   -0.336861   -0.000017
    5          6             0        0.250488    0.970179    0.000613
    6          6             0        0.693103   -1.388621   -0.000771
    7          6             0        1.610827    1.218522    0.000638
    8          6             0        2.048834   -1.141193   -0.000744
    9          6             0        2.521227    0.169069    0.000029
   10          6             0       -2.669013    0.153056    0.001837
   11          6             0       -3.975054   -0.606379    0.001123
   12          1             0       -0.447706    1.790633    0.001198
   13          1             0        0.340879   -2.408817   -0.001254
   14          1             0       -1.772847   -1.655368   -0.000469
   15          1             0        1.960742    2.240336    0.001151
   16          1             0        2.762683   -1.949105   -0.001279
   17          1             0       -4.050592   -1.215147   -0.896194
   18          1             0       -4.797373    0.102438    0.022810
   19          1             0       -4.033361   -1.251894    0.873442
   20          1             0        4.073032    1.311635    0.000771
 --------------------------------------------------------------------
     1 basis functions        1 primitive gaussians
     1 alpha electrons        1 beta electrons

 Harmonic frequencies (cm**-1), IR intensities (km*mol⁻¹),
 Raman scattering activities (A**4/amu), Raman depolarization ratios,
 reduced masses (AMU), force constants (mDyne/A) and normal coordinates:
                      1                      2                      3
                        a                      a                      a 
 Frequencies --    48.0752                69.2953               102.2705
 Red. masses --    12.5213                11.0131                 1.5792
 Frc consts  --     0.0000                 0.0000                 0.0000
 IR Inten    --    14.9215                 5.6520                 0.0962
 Raman Activ --     0.0000                 0.0000                 0.0000
 Depolar     --     0.0000                 0.0000                 0.0000
 Atom AN      X      Y      Z        X      Y      Z        X      Y      Z
   1   8    -0.00   0.00   0.21     0.00  -0.00  -0.43     0.00  -0.00  -0.01
   2   8     0.00  -0.00   0.60    -0.00  -0.00   0.25    -0.00   0.00   0.17
   3   7    -0.00  -0.00  -0.30     0.00   0.00   0.23    -0.00   0.00  -0.08
   4   6    -0.00  -0.00  -0.19     0.00   0.00   0.26    -0.00   0.00  -0.01
   5   6    -0.00  -0.00  -0.42     0.00   0.00   0.17     0.00   0.00   0.01
   6   6     0.00  -0.00   0.11    -0.00  -0.00   0.27    -0.00   0.00  -0.02
   7   6    -0.00   0.00  -0.31     0.00   0.00  -0.01     0.00  -0.00   0.01
   8   6     0.00  -0.00   0.23    -0.00  -0.00   0.10    -0.00  -0.00  -0.01
   9   6    -0.00   0.00   0.03     0.00  -0.00  -0.09     0.00  -0.00  -0.00
  10   6     0.00  -0.00   0.09    -0.00  -0.00  -0.00    -0.00   0.00  -0.02
  11   6    -0.00   0.00  -0.07     0.00  -0.00  -0.57     0.00  -0.01  -0.05
  12   1    -0.00  -0.00  -0.19     0.00   0.00   0.06     0.00   0.00   0.00
  13   1     0.00  -0.00   0.08    -0.00  -0.00   0.11    -0.00   0.00  -0.01
  14   1    -0.00  -0.00  -0.13    -0.00   0.00   0.02    -0.00   0.00  -0.03
  15   1    -0.00   0.00  -0.14     0.00   0.00  -0.03     0.00  -0.00   0.01
  16   1     0.00  -0.00   0.14    -0.00  -0.00   0.02    -0.00  -0.00  -0.01
  17   1    -0.01   0.06  -0.06     0.08   0.07  -0.22     0.23  -0.45   0.28
  18   1     0.00  -0.00   0.04    -0.00  -0.00  -0.18    -0.01   0.01  -0.55
  19   1     0.01  -0.06  -0.06    -0.08  -0.07  -0.22    -0.21   0.44   0.30
  20   1    -0.00   0.00   0.00     0.00  -0.00  -0.14     0.00  -0.00   0.00
                      4                      5                      6
                        a                      a                      a 
 Frequencies --   142.8904               170.4791               307.0885
 Red. masses --    12.1663                12.1202                13.3086
 Frc consts  --     0.0000                 0.0000                 0.0000
 IR Inten    --    15.2863                 0.0019                 0.1353
 Raman Activ --     0.0000                 0.0000                 0.0000
 Depolar     --     0.0000                 0.0000                 0.0000
 Atom AN      X      Y      Z        X      Y      Z        X      Y      Z
   1   8     0.13  -0.34   0.00     0.00  -0.00  -0.45     0.23   0.36   0.00
   2   8    -0.50   0.02  -0.00    -0.00  -0.00  -0.01    -0.52   0.16   0.00
   3   7     0.04   0.26   0.00    -0.00   0.00  -0.58    -0.11   0.13  -0.00
   4   6     0.03   0.26  -0.00     0.00   0.00  -0.07     0.04  -0.22   0.00
   5   6     0.16   0.21  -0.00     0.00   0.00   0.19     0.11  -0.25  -0.00
   6   6    -0.09   0.16  -0.00    -0.00   0.00   0.21     0.17  -0.15  -0.00
   7   6     0.21   0.04  -0.00     0.00   0.00   0.30     0.10  -0.20  -0.00
   8   6    -0.07  -0.02  -0.00    -0.00  -0.00   0.31     0.22  -0.09  -0.00
   9   6     0.08  -0.07  -0.00     0.00  -0.00   0.10     0.23  -0.08  -0.00
  10   6    -0.13   0.01   0.00    -0.00  -0.00  -0.15    -0.18   0.13   0.00
  11   6     0.09  -0.40   0.00    -0.00  -0.00   0.19    -0.20   0.11   0.00
  12   1     0.07   0.08  -0.00     0.00   0.00   0.06     0.03  -0.07  -0.00
  13   1    -0.06   0.06  -0.00    -0.00   0.00   0.07     0.08  -0.05  -0.00
  14   1     0.05   0.06   0.00     0.00   0.00  -0.19    -0.08   0.04   0.00
  15   1     0.10  -0.00  -0.00     0.00  -0.00   0.11    -0.00  -0.05  -0.00
  16   1    -0.05  -0.03  -0.00    -0.00  -0.00   0.11     0.05  -0.04  -0.00
  17   1     0.08  -0.12  -0.00    -0.07  -0.01   0.07    -0.07   0.03  -0.00
  18   1    -0.04  -0.19   0.01     0.00  -0.00   0.12    -0.04   0.05  -0.00
  19   1     0.09  -0.13  -0.00     0.07   0.01   0.07    -0.07   0.03   0.00
  20   1     0.08  -0.10   0.00     0.00  -0.00  -0.14    -0.04   0.11   0.00
                      7                      8                      9
                        a                      a                      a 
 Frequencies --   310.9315               365.6222               372.2014
 Red. masses --    10.8802                 5.0631                11.0322
 Frc consts  --     0.0000                 0.0000                 0.0000
 IR Inten    --     2.3419               135.7917                 0.0673
 Raman Activ --     0.0000                 0.0000                 0.0000
 Depolar     --     0.0000                 0.0000                 0.0000
 Atom AN      X      Y      Z        X      Y      Z        X      Y      Z
   1   8    -0.28   0.19  -0.00    -0.00  -0.00   0.25    -0.00   0.00   0.27
   2   8    -0.01   0.33  -0.00    -0.00   0.00  -0.00     0.00   0.00   0.02
   3   7     0.08   0.19  -0.00    -0.00   0.00  -0.03     0.00   0.00  -0.32
   4   6     0.06  -0.12  -0.00     0.00  -0.00   0.05     0.00  -0.00   0.36
   5   6    -0.09  -0.10  -0.00     0.00  -0.00   0.33    -0.00   0.00   0.29
   6   6    -0.04  -0.20  -0.00     0.00  -0.00  -0.26    -0.00  -0.00   0.37
   7   6    -0.14  -0.09   0.00    -0.00   0.00  -0.27    -0.00  -0.00  -0.27
   8   6    -0.04  -0.17   0.00     0.00  -0.00   0.18    -0.00  -0.00  -0.33
   9   6    -0.18  -0.11   0.00    -0.00   0.00  -0.03    -0.00  -0.00  -0.38
  10   6     0.16   0.28   0.00     0.00   0.00  -0.02     0.00   0.00  -0.15
  11   6     0.46  -0.20   0.00     0.00  -0.00   0.01     0.00  -0.00   0.05
  12   1    -0.05  -0.05  -0.00     0.00  -0.00   0.18    -0.00  -0.00   0.12
  13   1    -0.03  -0.05  -0.00    -0.00   0.00  -0.17    -0.00  -0.00   0.17
  14   1    -0.04   0.06   0.00    -0.00   0.00  -0.04     0.00   0.00  -0.15
  15   1    -0.02  -0.03   0.00    -0.00   0.00  -0.16     0.00  -0.00  -0.10
  16   1     0.01  -0.03   0.00     0.00  -0.00   0.11    -0.00  -0.00  -0.13
  17   1     0.23  -0.07  -0.00    -0.01  -0.01   0.01    -0.06  -0.02   0.03
  18   1     0.02  -0.19   0.00     0.00   0.00   0.01     0.00  -0.00   0.05
  19   1     0.23  -0.07  -0.00     0.01   0.00   0.01     0.05   0.02   0.03
  20   1    -0.14   0.06  -0.00     0.00   0.00  -0.74    -0.00   0.00   0.17
                     10                     11                     12
                        a                      a                      a 
 Frequencies --   393.1488               403.1715               479.6896
 Red. masses --     6.5770                10.9679                11.8652
 Frc consts  --     0.0000                 0.0000                 0.0000
 IR Inten    --    74.8705                14.2641                35.1042
 Raman Activ --     0.0000                 0.0000                 0.0000
 Depolar     --     0.0000                 0.0000                 0.0000
 Atom AN      X      Y      Z        X      Y      Z        X      Y      Z
   1   8    -0.00   0.00  -0.16    -0.06   0.46   0.00     0.38   0.06   0.00
   2   8     0.00  -0.00  -0.00     0.19  -0.14   0.00     0.38   0.15  -0.00
   3   7     0.00   0.00   0.01     0.02  -0.00   0.00    -0.36  -0.06  -0.00
   4   6    -0.00   0.00  -0.01    -0.06   0.27  -0.00    -0.33  -0.06  -0.00
   5   6     0.00   0.00   0.33     0.09   0.22  -0.00    -0.04  -0.16   0.00
   6   6    -0.00   0.00  -0.31    -0.18   0.17   0.00    -0.13   0.13   0.00
   7   6     0.00  -0.00  -0.36     0.15  -0.26   0.00    -0.00  -0.13  -0.00
   8   6    -0.00  -0.00   0.37    -0.07  -0.30  -0.00    -0.09   0.18   0.00
   9   6     0.00  -0.00  -0.01     0.06  -0.34   0.00     0.25   0.07  -0.00
  10   6    -0.00  -0.00  -0.01    -0.03  -0.11  -0.00    -0.17   0.16   0.00
  11   6    -0.00  -0.00   0.00    -0.07  -0.03  -0.00     0.02  -0.24   0.00
  12   1     0.00   0.00   0.20     0.09   0.12  -0.00     0.04  -0.00   0.00
  13   1    -0.00   0.00  -0.17    -0.13   0.08   0.00     0.02   0.02   0.00
  14   1     0.00   0.00  -0.03     0.06  -0.01   0.00    -0.12  -0.01  -0.00
  15   1     0.00  -0.00  -0.20     0.14  -0.11   0.00    -0.07  -0.01   0.00
  16   1    -0.00  -0.00   0.22    -0.10  -0.16  -0.00    -0.08   0.00   0.00
  17   1    -0.00  -0.00   0.00    -0.03  -0.01   0.00     0.12  -0.09   0.00
  18   1     0.00  -0.00   0.00    -0.01   0.01  -0.00    -0.13  -0.23   0.00
  19   1     0.00   0.00   0.00    -0.03  -0.01  -0.00     0.13  -0.09  -0.00
  20   1    -0.00   0.00   0.59    -0.22   0.16  -0.00     0.10   0.01   0.00
                     13                     14                     15
                        a                      a                      a 
 Frequencies --   499.7429               552.9177               601.5315
 Red. masses --     8.6091                 9.1921                11.5081
 Frc consts  --     0.0000                 0.0000                 0.0000
 IR Inten    --     3.3375                55.5229                 0.3954
 Raman Activ --     0.0000                 0.0000                 0.0000
 Depolar     --     0.0000                 0.0000                 0.0000
 Atom AN      X      Y      Z        X      Y      Z        X      Y      Z
   1   8     0.00   0.00  -0.15     0.00   0.00  -0.01    -0.14   0.12   0.00
   2   8     0.00   0.00   0.04    -0.00  -0.00  -0.23     0.18  -0.03   0.00
   3   7    -0.00   0.00  -0.07    -0.00  -0.00  -0.44    -0.01   0.15  -0.00
   4   6    -0.00  -0.00   0.54    -0.00   0.00   0.12     0.12  -0.11   0.00
   5   6    -0.00  -0.00  -0.12    -0.00   0.00   0.05     0.45  -0.16   0.00
   6   6    -0.00  -0.00  -0.11    -0.00   0.00   0.02    -0.21  -0.37  -0.00
   7   6    -0.00  -0.00  -0.10    -0.00  -0.00  -0.06     0.33   0.34   0.00
   8   6    -0.00   0.00  -0.09    -0.00   0.00  -0.04    -0.28   0.10   0.00
   9   6     0.00  -0.00   0.53     0.00  -0.00   0.10    -0.08   0.08   0.00
  10   6    -0.00   0.00  -0.17     0.00  -0.00   0.65    -0.13  -0.01  -0.00
  11   6    -0.00  -0.00   0.02     0.00   0.00   0.01    -0.20  -0.11  -0.00
  12   1    -0.00   0.00  -0.26    -0.00   0.00  -0.04     0.08  -0.08   0.00
  13   1     0.00   0.00  -0.27    -0.00   0.00  -0.06    -0.03  -0.11  -0.00
  14   1    -0.00   0.00  -0.13    -0.00  -0.00   0.32     0.01   0.04   0.01
  15   1    -0.00   0.00  -0.27    -0.00  -0.00  -0.08     0.09   0.10   0.00
  16   1    -0.00   0.00  -0.27    -0.00  -0.00  -0.07    -0.03   0.07  -0.00
  17   1    -0.07  -0.03   0.03     0.25   0.12  -0.10    -0.04  -0.04   0.00
  18   1     0.00  -0.00   0.05    -0.00  -0.00  -0.15    -0.08  -0.06   0.00
  19   1     0.07   0.03   0.03    -0.24  -0.11  -0.10    -0.04  -0.04  -0.00
  20   1     0.00  -0.00  -0.00     0.00   0.00   0.00    -0.08   0.04  -0.00
                     16                     17                     18
                        a                      a                      a 
 Frequencies --   612.2714               640.3173               669.1173
 Red. masses --     3.3591                11.5320                11.4113
 Frc consts  --     0.0000                 0.0000                 0.0000
 IR Inten    --    51.4743                 1.0203                 0.1744
 Raman Activ --     0.0000                 0.0000                 0.0000
 Depolar     --     0.0000                 0.0000                 0.0000
 Atom AN      X      Y      Z        X      Y      Z        X      Y      Z
   1   8    -0.00   0.00  -0.00    -0.25  -0.12  -0.00    -0.00   0.00  -0.07
   2   8    -0.00  -0.00  -0.20     0.31   0.09  -0.00     0.00  -0.00   0.01
   3   7     0.00  -0.00   0.17    -0.07   0.21  -0.00     0.00  -0.00   0.08
   4   6     0.00  -0.00  -0.02     0.14   0.03  -0.00    -0.00   0.00  -0.52
   5   6     0.01  -0.00  -0.02    -0.06   0.11  -0.00     0.00  -0.00   0.30
   6   6    -0.00  -0.00   0.02     0.36   0.05   0.00     0.00  -0.00   0.31
   7   6     0.01   0.00   0.01    -0.06   0.01  -0.00     0.00   0.00  -0.30
   8   6    -0.01   0.00  -0.01     0.40  -0.17  -0.00     0.00   0.00  -0.30
   9   6    -0.00   0.00   0.00    -0.12  -0.04  -0.00    -0.00  -0.00   0.53
  10   6    -0.00  -0.00   0.35    -0.27   0.10   0.01    -0.00  -0.00  -0.02
  11   6    -0.00   0.00   0.03    -0.38  -0.21  -0.00    -0.00   0.00  -0.01
  12   1     0.00  -0.00  -0.02    -0.03   0.02  -0.00     0.00  -0.00   0.12
  13   1    -0.00  -0.00   0.03     0.08   0.02   0.00     0.00  -0.00   0.11
  14   1    -0.00   0.00  -0.88    -0.01   0.05  -0.00     0.00  -0.00   0.02
  15   1     0.00   0.00  -0.01     0.04  -0.01  -0.00     0.00   0.00  -0.12
  16   1    -0.00   0.00   0.00     0.17   0.00  -0.00     0.00   0.00  -0.13
  17   1     0.11   0.05  -0.03    -0.03  -0.07   0.00    -0.00  -0.00   0.00
  18   1    -0.00  -0.00  -0.08    -0.19  -0.16  -0.00    -0.00  -0.00   0.00
  19   1    -0.11  -0.04  -0.03    -0.03  -0.07  -0.00     0.00   0.00   0.00
  20   1    -0.00   0.00   0.00    -0.02  -0.04  -0.00    -0.00  -0.00  -0.02
                     19                     20                     21
                        a                      a                      a 
 Frequencies --   782.9731               806.4930               856.5025
 Red. masses --    12.1183                 5.1895                 3.2893
 Frc consts  --     0.0000                 0.0000                 0.0000
 IR Inten    --    40.7782                62.1557                 0.0215
 Raman Activ --     0.0000                 0.0000                 0.0000
 Depolar     --     0.0000                 0.0000                 0.0000
 Atom AN      X      Y      Z        X      Y      Z        X      Y      Z
   1   8    -0.40  -0.06   0.00     0.00   0.00   0.06    -0.00  -0.00   0.00
   2   8    -0.13   0.09   0.00     0.00  -0.00   0.01     0.00   0.00   0.00
   3   7    -0.30  -0.44   0.00     0.00   0.00   0.06     0.00   0.00  -0.00
   4   6    -0.19  -0.02   0.00     0.00   0.00  -0.28    -0.00  -0.00  -0.01
   5   6     0.30  -0.10  -0.00    -0.00   0.00   0.19     0.00  -0.00   0.18
   6   6     0.16   0.30   0.00    -0.00  -0.00   0.24     0.00   0.00  -0.26
   7   6     0.28   0.09   0.00    -0.00  -0.00   0.25     0.00  -0.00   0.27
   8   6     0.16   0.04   0.00    -0.00  -0.00   0.21    -0.00   0.00  -0.19
   9   6    -0.05  -0.03  -0.00     0.00   0.00  -0.30     0.00  -0.00   0.02
  10   6     0.01   0.06  -0.00    -0.00  -0.00  -0.01    -0.00   0.00  -0.00
  11   6     0.17   0.11   0.00    -0.00   0.00  -0.00     0.00  -0.00  -0.00
  12   1     0.15   0.03  -0.00    -0.00   0.00  -0.33     0.00   0.00  -0.32
  13   1     0.09   0.07  -0.00    -0.00   0.00  -0.41     0.00  -0.00   0.51
  14   1    -0.11  -0.11   0.00     0.00   0.00   0.01     0.00   0.00   0.02
  15   1     0.12   0.01  -0.00    -0.00   0.00  -0.44    -0.00   0.00  -0.55
  16   1     0.05   0.02  -0.00    -0.00   0.00  -0.39    -0.00  -0.00   0.35
  17   1     0.10   0.02   0.00     0.00  -0.00  -0.00    -0.00  -0.00  -0.00
  18   1    -0.00  -0.03   0.00    -0.00  -0.00  -0.00     0.00   0.00   0.00
  19   1     0.10   0.02  -0.00    -0.00   0.00  -0.00     0.00   0.00  -0.00
  20   1    -0.12  -0.01   0.00     0.00   0.00   0.02    -0.00  -0.00  -0.01
                     22                     23                     24
                        a                      a                      a 
 Frequencies --   874.4346               896.3616               912.8053
 Red. masses --    11.6863                 2.7021                 3.7970
 Frc consts  --     0.0000                 0.0000                 0.0000
 IR Inten    --    20.4548                 0.0003                 0.5303
 Raman Activ --     0.0000                 0.0000                 0.0000
 Depolar     --     0.0000                 0.0000                 0.0000
 Atom AN      X      Y      Z        X      Y      Z        X      Y      Z
   1   8     0.31   0.06   0.00    -0.00  -0.00   0.02    -0.00  -0.00   0.01
   2   8    -0.06   0.12   0.00     0.00  -0.00  -0.00     0.00   0.00   0.00
   3   7    -0.18  -0.39  -0.00     0.00   0.00  -0.02     0.00  -0.00   0.01
   4   6     0.06   0.01   0.00     0.00   0.00  -0.01     0.00  -0.00  -0.02
   5   6    -0.14   0.40   0.00    -0.00   0.00  -0.18     0.00  -0.00   0.32
   6   6    -0.04  -0.33  -0.00    -0.00   0.00  -0.20    -0.00   0.00  -0.21
   7   6     0.04   0.39   0.00     0.00  -0.00   0.08    -0.00   0.00  -0.25
   8   6     0.08  -0.33  -0.00     0.00  -0.00   0.27    -0.00  -0.00   0.21
   9   6    -0.07  -0.03   0.00     0.00   0.00   0.02     0.00   0.00  -0.02
  10   6    -0.02   0.08  -0.00    -0.00  -0.00  -0.00     0.00   0.00  -0.00
  11   6    -0.01   0.06   0.00    -0.00   0.00   0.00    -0.00  -0.00   0.00
  12   1    -0.09   0.07  -0.00     0.00  -0.00   0.45    -0.00   0.00  -0.58
  13   1    -0.10  -0.07   0.00     0.00  -0.00   0.46     0.00  -0.00   0.32
  14   1    -0.09  -0.09   0.00    -0.00   0.00   0.00     0.00  -0.00   0.00
  15   1     0.11   0.08  -0.00    -0.00   0.00  -0.25     0.00  -0.00   0.44
  16   1     0.07  -0.05   0.00    -0.00   0.00  -0.61    -0.00   0.00  -0.33
  17   1     0.08  -0.00   0.00     0.00   0.00  -0.00     0.00   0.00  -0.00
  18   1    -0.10  -0.09   0.00    -0.00  -0.00  -0.00    -0.00  -0.00  -0.00
  19   1     0.09   0.00  -0.00    -0.00  -0.00  -0.00    -0.00  -0.00  -0.00
  20   1     0.05   0.02  -0.00     0.00  -0.00  -0.00    -0.00   0.00  -0.01
                     25                     26                     27
                        a                      a                      a 
 Frequencies --   965.7080               997.4570               998.2461
 Red. masses --    12.0479                 6.3009                 5.5515
 Frc consts  --     0.0000                 0.0000                 0.0000
 IR Inten    --    63.8105                10.6564                25.0210
 Raman Activ --     0.0000                 0.0000                 0.0000
 Depolar     --     0.0000                 0.0000                 0.0000
 Atom AN      X      Y      Z        X      Y      Z        X      Y      Z
   1   8    -0.05  -0.01  -0.00     0.07   0.02  -0.00    -0.03  -0.01  -0.00
   2   8    -0.06   0.42  -0.00     0.05   0.13  -0.04    -0.02  -0.07  -0.08
   3   7     0.26  -0.39  -0.00    -0.10   0.06  -0.02     0.04  -0.03  -0.05
   4   6     0.14  -0.00  -0.00    -0.14  -0.03  -0.01     0.06   0.01  -0.01
   5   6    -0.01   0.06   0.00     0.04  -0.14   0.00    -0.02   0.06   0.00
   6   6    -0.03   0.02   0.00    -0.02   0.16  -0.00     0.01  -0.07  -0.00
   7   6    -0.00  -0.18  -0.00     0.00   0.27   0.00    -0.00  -0.12   0.00
   8   6    -0.16   0.20   0.00     0.11  -0.26   0.00    -0.05   0.11   0.00
   9   6     0.06  -0.01  -0.00    -0.06  -0.01   0.00     0.03   0.00   0.00
  10   6     0.36   0.18   0.01     0.14   0.04   0.19    -0.07  -0.02   0.41
  11   6    -0.38  -0.25  -0.01     0.08  -0.34  -0.18    -0.03   0.16  -0.38
  12   1     0.03   0.05   0.00    -0.04  -0.08   0.00     0.02   0.04   0.00
  13   1     0.02   0.00  -0.00    -0.11   0.08   0.00     0.05  -0.04   0.00
  14   1     0.03  -0.09   0.00    -0.12   0.03   0.00     0.06  -0.02   0.01
  15   1     0.03  -0.06  -0.00    -0.09   0.10  -0.00     0.04  -0.05  -0.00
  16   1    -0.07   0.04  -0.00    -0.04  -0.13  -0.00     0.02   0.06  -0.00
  17   1    -0.17  -0.07   0.00    -0.48  -0.13   0.03    -0.26  -0.24   0.12
  18   1    -0.10  -0.07   0.00     0.31   0.26   0.09    -0.13  -0.11   0.20
  19   1    -0.16  -0.06  -0.00    -0.13   0.09   0.08     0.54   0.25   0.11
  20   1    -0.04   0.00  -0.00     0.05  -0.00   0.00    -0.02   0.00   0.00
                     28                     29                     30
                        a                      a                      a 
 Frequencies --  1024.2199              1092.6624              1135.1692
 Red. masses --     6.8493                 4.1303                 2.5098
 Frc consts  --     0.0000                 0.0000                 0.0000
 IR Inten    --     4.8399               392.2964                61.7698
 Raman Activ --     0.0000                 0.0000                 0.0000
 Depolar     --     0.0000                 0.0000                 0.0000
 Atom AN      X      Y      Z        X      Y      Z        X      Y      Z
   1   8    -0.08  -0.02  -0.00     0.25  -0.20  -0.00     0.14  -0.07  -0.00
   2   8     0.05  -0.00   0.00     0.01  -0.01  -0.00    -0.02   0.01   0.00
   3   7    -0.25   0.06   0.00     0.01   0.04   0.00     0.04  -0.03  -0.00
   4   6    -0.04  -0.00  -0.00     0.02  -0.11  -0.00    -0.09   0.14   0.00
   5   6    -0.09   0.34   0.00    -0.08   0.04   0.00     0.12  -0.09  -0.00
   6   6     0.04  -0.33  -0.00     0.06   0.13   0.00    -0.11  -0.07  -0.00
   7   6     0.07  -0.24  -0.00    -0.02   0.18   0.00    -0.07  -0.08  -0.00
   8   6    -0.01   0.25   0.00    -0.04   0.16   0.00     0.10  -0.06  -0.00
   9   6     0.07   0.01  -0.00     0.01  -0.21  -0.00    -0.09   0.02   0.00
  10   6    -0.06  -0.00  -0.00    -0.03   0.00   0.00     0.04   0.01  -0.00
  11   6     0.20  -0.18  -0.00     0.01  -0.00  -0.00    -0.02   0.00   0.00
  12   1     0.11   0.21   0.00    -0.20  -0.13  -0.00     0.27   0.18   0.00
  13   1     0.18  -0.15  -0.00     0.20  -0.03  -0.00    -0.35   0.09   0.00
  14   1    -0.16   0.03   0.00    -0.02   0.01   0.00     0.05  -0.02  -0.00
  15   1     0.24  -0.14  -0.00     0.06   0.04   0.00    -0.39   0.10   0.00
  16   1     0.18   0.23   0.00    -0.07  -0.00  -0.00     0.49   0.39   0.00
  17   1    -0.17   0.01  -0.02    -0.01   0.00   0.00    -0.00  -0.00   0.00
  18   1     0.27   0.22  -0.00     0.02   0.01  -0.00    -0.02  -0.01  -0.00
  19   1    -0.18   0.00   0.02    -0.01  -0.00  -0.00    -0.00  -0.00  -0.00
  20   1    -0.04   0.00   0.00    -0.79   0.14   0.00    -0.29   0.05   0.00
                     31                     32                     33
                        a                      a                      a 
 Frequencies --  1182.6929              1200.9496              1215.0369
 Red. masses --     2.1022                 5.4209                 8.0743
 Frc consts  --     0.0000                 0.0000                 0.0000
 IR Inten    --    14.0472               245.6832                20.3819
 Raman Activ --     0.0000                 0.0000                 0.0000
 Depolar     --     0.0000                 0.0000                 0.0000
 Atom AN      X      Y      Z        X      Y      Z        X      Y      Z
   1   8    -0.07  -0.04  -0.00     0.18   0.06   0.00    -0.06  -0.01  -0.00
   2   8    -0.00   0.04   0.00    -0.00   0.13   0.00     0.05   0.21   0.00
   3   7     0.00  -0.03  -0.00     0.17  -0.02  -0.00    -0.02  -0.26  -0.00
   4   6    -0.03   0.06   0.00    -0.36   0.07   0.00     0.31   0.11  -0.00
   5   6     0.06   0.12   0.00    -0.02  -0.14  -0.00     0.04  -0.01  -0.00
   6   6     0.08  -0.15  -0.00    -0.01   0.04   0.00     0.02  -0.01   0.00
   7   6    -0.07   0.04   0.00     0.01   0.06   0.00    -0.00  -0.11  -0.00
   8   6    -0.01  -0.07  -0.00    -0.04  -0.14  -0.00    -0.06   0.06   0.00
   9   6     0.11   0.03   0.00    -0.32  -0.05  -0.00     0.10   0.02   0.00
  10   6    -0.08   0.01   0.00    -0.09   0.03   0.00    -0.56   0.04   0.00
  11   6     0.03  -0.01   0.00     0.01  -0.02   0.00     0.20  -0.05   0.00
  12   1     0.34   0.31   0.00     0.05   0.01   0.00    -0.21  -0.20  -0.00
  13   1     0.37  -0.16  -0.00     0.42  -0.14  -0.00    -0.22   0.08   0.00
  14   1     0.14  -0.03  -0.00     0.54  -0.10  -0.00     0.38  -0.14  -0.00
  15   1    -0.54   0.19   0.00     0.24  -0.07  -0.00    -0.12   0.01   0.00
  16   1    -0.30  -0.28  -0.00     0.18   0.13  -0.00    -0.03   0.00  -0.00
  17   1    -0.01   0.00  -0.00    -0.02  -0.01   0.01    -0.03   0.02  -0.01
  18   1     0.04   0.03  -0.00     0.04   0.04  -0.00     0.20   0.16  -0.00
  19   1    -0.01   0.00   0.00    -0.02  -0.02  -0.01    -0.04   0.01   0.01
  20   1    -0.09   0.01  -0.00     0.10  -0.00  -0.00    -0.01  -0.00  -0.00
                     34                     35                     36
                        a                      a                      a 
 Frequencies --  1263.3605              1285.2504              1340.8659
 Red. masses --     7.1834                 6.8574                11.4497
 Frc consts  --     0.0000                 0.0000                 0.0000
 IR Inten    --   472.2396                18.7629                28.9962
 Raman Activ --     0.0000                 0.0000                 0.0000
 Depolar     --     0.0000                 0.0000                 0.0000
 Atom AN      X      Y      Z        X      Y      Z        X      Y      Z
   1   8     0.25   0.01   0.00     0.14   0.10   0.00    -0.10   0.02   0.00
   2   8     0.02  -0.01  -0.00     0.01  -0.03  -0.00     0.00   0.03   0.00
   3   7     0.10  -0.06  -0.00    -0.11  -0.07  -0.00     0.08   0.03   0.00
   4   6     0.22  -0.21  -0.00     0.30   0.08  -0.00    -0.06  -0.43  -0.00
   5   6     0.08  -0.09  -0.00     0.27   0.11   0.00     0.23   0.24   0.00
   6   6     0.14   0.11   0.00    -0.04   0.21   0.00    -0.40   0.09   0.00
   7   6    -0.24   0.00   0.00    -0.09  -0.10  -0.00    -0.33   0.17   0.00
   8   6    -0.07   0.10   0.00    -0.19   0.00   0.00     0.33   0.21   0.00
   9   6    -0.43   0.02   0.00    -0.31  -0.32  -0.00     0.20  -0.35  -0.00
  10   6    -0.24   0.05   0.00    -0.02   0.00  -0.00    -0.04  -0.01   0.00
  11   6     0.06  -0.01  -0.00     0.02  -0.01  -0.00    -0.01   0.00   0.00
  12   1     0.42   0.30   0.00    -0.15  -0.16  -0.00     0.03   0.05   0.00
  13   1    -0.18   0.11   0.00     0.37  -0.07  -0.00    -0.04  -0.01  -0.00
  14   1    -0.15   0.01   0.00    -0.30   0.04   0.00     0.17  -0.02  -0.00
  15   1     0.25  -0.11  -0.00    -0.30   0.06   0.00     0.02   0.01   0.00
  16   1    -0.20  -0.12  -0.00     0.15   0.18   0.00     0.05   0.01  -0.00
  17   1    -0.01   0.01  -0.01     0.00   0.02  -0.01     0.01  -0.01   0.00
  18   1     0.05   0.04  -0.00     0.00  -0.00   0.00     0.02   0.02  -0.00
  19   1    -0.01   0.01   0.01     0.00   0.02   0.01     0.02  -0.01  -0.01
  20   1    -0.01   0.02   0.00     0.22  -0.02   0.00     0.13  -0.03  -0.00
                     37                     38                     39
                        a                      a                      a 
 Frequencies --  1365.6095              1394.9529              1440.0720
 Red. masses --     3.2221                10.5247                 2.7771
 Frc consts  --     0.0000                 0.0000                 0.0000
 IR Inten    --    42.0881               273.3763                85.4213
 Raman Activ --     0.0000                 0.0000                 0.0000
 Depolar     --     0.0000                 0.0000                 0.0000
 Atom AN      X      Y      Z        X      Y      Z        X      Y      Z
   1   8     0.00   0.00  -0.00    -0.11   0.04   0.00     0.00  -0.03  -0.00
   2   8     0.00  -0.02  -0.00     0.03   0.04   0.00     0.00  -0.03   0.00
   3   7    -0.01   0.00  -0.00     0.52  -0.08  -0.00     0.13  -0.06  -0.00
   4   6     0.01  -0.00  -0.00    -0.15  -0.22  -0.00    -0.06   0.11   0.00
   5   6     0.02   0.01   0.00    -0.30   0.01   0.00     0.10  -0.01  -0.00
   6   6    -0.00  -0.01   0.00     0.04   0.13   0.00    -0.11  -0.05  -0.00
   7   6    -0.02  -0.01  -0.00     0.29   0.13   0.00    -0.09  -0.04  -0.00
   8   6     0.01   0.01   0.00    -0.20  -0.09  -0.00     0.11  -0.02  -0.00
   9   6    -0.01  -0.00  -0.00     0.19  -0.15  -0.00     0.00   0.11   0.00
  10   6    -0.04   0.01   0.00    -0.36   0.03   0.00    -0.08   0.03  -0.00
  11   6     0.35   0.27   0.00     0.06   0.01   0.00     0.19  -0.13  -0.00
  12   1    -0.01  -0.01   0.00     0.04   0.11   0.00    -0.03  -0.06  -0.00
  13   1    -0.01   0.00  -0.00     0.04   0.03   0.00     0.05  -0.04   0.00
  14   1     0.02  -0.00  -0.00    -0.33   0.06   0.00    -0.07   0.00   0.00
  15   1    -0.01  -0.00  -0.00    -0.08   0.10   0.00     0.05  -0.03  -0.00
  16   1    -0.01  -0.01  -0.00     0.14   0.14   0.00    -0.01  -0.05  -0.00
  17   1    -0.42  -0.26   0.24    -0.02   0.02  -0.01    -0.20   0.45  -0.30
  18   1    -0.28  -0.34  -0.01     0.01   0.01  -0.00    -0.24  -0.31  -0.01
  19   1    -0.42  -0.26  -0.25    -0.01   0.02   0.01    -0.19   0.44   0.32
  20   1     0.00  -0.00  -0.00     0.08  -0.02   0.00    -0.04   0.00  -0.00
                     40                     41                     42
                        a                      a                      a 
 Frequencies --  1448.1711              1459.9091              1482.9718
 Red. masses --     8.4062                 1.5745                 9.6884
 Frc consts  --     0.0000                 0.0000                 0.0000
 IR Inten    --   255.6375                11.6486               495.5201
 Raman Activ --     0.0000                 0.0000                 0.0000
 Depolar     --     0.0000                 0.0000                 0.0000
 Atom AN      X      Y      Z        X      Y      Z        X      Y      Z
   1   8     0.01  -0.06  -0.00     0.00  -0.00  -0.00    -0.09  -0.03  -0.00
   2   8     0.02   0.08  -0.00    -0.00   0.00   0.00    -0.00  -0.00  -0.00
   3   7     0.32  -0.14  -0.00    -0.00   0.00  -0.01    -0.16  -0.02   0.00
   4   6    -0.14   0.28   0.00    -0.00   0.00  -0.00     0.43   0.08  -0.00
   5   6     0.25  -0.03  -0.00     0.00   0.00   0.00    -0.15  -0.27  -0.00
   6   6    -0.28  -0.10  -0.00    -0.00  -0.00  -0.00    -0.25   0.20   0.00
   7   6    -0.21  -0.11  -0.00    -0.00  -0.00   0.00    -0.25   0.18   0.00
   8   6     0.26  -0.07  -0.00     0.00  -0.00   0.00    -0.15  -0.29  -0.00
   9   6    -0.00   0.31   0.00    -0.00   0.00   0.00     0.39   0.12   0.00
  10   6    -0.19  -0.03   0.00     0.00  -0.00   0.04     0.01  -0.01   0.00
  11   6    -0.04   0.05   0.00    -0.00  -0.01   0.22     0.02   0.00   0.00
  12   1    -0.08  -0.14  -0.00    -0.00  -0.00  -0.00     0.21   0.13   0.00
  13   1     0.14  -0.11  -0.00     0.00  -0.00   0.00     0.24  -0.05  -0.00
  14   1    -0.37   0.05   0.00    -0.00   0.00   0.01     0.01  -0.01  -0.00
  15   1     0.11  -0.09  -0.00    -0.00  -0.00  -0.00     0.22  -0.04  -0.00
  16   1    -0.02  -0.11  -0.00    -0.00  -0.00  -0.00     0.18   0.11   0.00
  17   1     0.08  -0.16   0.10    -0.41   0.18  -0.07    -0.01   0.00   0.00
  18   1     0.10   0.13   0.01    -0.00   0.02  -0.73    -0.00  -0.01  -0.00
  19   1     0.07  -0.15  -0.11     0.41  -0.18  -0.08    -0.01   0.00  -0.00
  20   1    -0.11   0.01   0.00    -0.00   0.00  -0.00    -0.06   0.01   0.00
                     43                     44                     45
                        a                      a                      a 
 Frequencies --  1582.6706              1609.4429              1658.9487
 Red. masses --    11.5390                11.5804                13.0704
 Frc consts  --     0.0000                 0.0000                 0.0000
 IR Inten    --    17.7842                38.9102               908.4499
 Raman Activ --     0.0000                 0.0000                 0.0000
 Depolar     --     0.0000                 0.0000                 0.0000
 Atom AN      X      Y      Z        X      Y      Z        X      Y      Z
   1   8    -0.04   0.04   0.00    -0.03  -0.01  -0.00     0.02   0.00   0.00
   2   8     0.00   0.04   0.00     0.00   0.03   0.00     0.03   0.55   0.00
   3   7     0.03  -0.05  -0.00     0.03   0.02   0.00    -0.07   0.10   0.00
   4   6    -0.08   0.51   0.00    -0.25  -0.08   0.00     0.02  -0.05  -0.00
   5   6    -0.07  -0.31  -0.00     0.38   0.21   0.00    -0.03   0.00   0.00
   6   6     0.20  -0.24  -0.00     0.45  -0.02  -0.00    -0.01   0.02   0.00
   7   6    -0.21   0.27   0.00    -0.43   0.04   0.00     0.04  -0.01  -0.00
   8   6     0.05   0.29   0.00    -0.42  -0.22  -0.00     0.02   0.01   0.00
   9   6     0.12  -0.52  -0.00     0.26   0.07   0.00    -0.05   0.01   0.00
  10   6    -0.02  -0.04   0.00     0.01  -0.05  -0.00     0.00  -0.81  -0.00
  11   6     0.00   0.00   0.00    -0.00   0.01  -0.00     0.04   0.06  -0.00
  12   1     0.08   0.00  -0.00    -0.06  -0.08  -0.00     0.03   0.03  -0.00
  13   1    -0.07  -0.02   0.00    -0.08   0.06   0.00    -0.00   0.01   0.00
  14   1    -0.11   0.01   0.00    -0.00   0.00  -0.00    -0.06   0.02  -0.00
  15   1     0.08   0.02   0.00     0.08  -0.05  -0.00    -0.01   0.00  -0.00
  16   1    -0.06   0.01   0.00     0.06   0.09   0.00    -0.00  -0.00   0.00
  17   1     0.00  -0.00   0.00     0.00   0.00  -0.00     0.02   0.03  -0.02
  18   1     0.00   0.00  -0.00    -0.01  -0.01   0.00    -0.05  -0.07   0.00
  19   1     0.00  -0.00  -0.00     0.00   0.00   0.00     0.02   0.03   0.02
  20   1     0.10  -0.02  -0.00    -0.02   0.00   0.00    -0.00   0.00   0.00
                     46                     47                     48
                        a                      a                      a 
 Frequencies --  3033.9830              3036.6010              3067.8494
 Red. masses --     1.8741                 1.5599                 1.7392
 Frc consts  --     0.0000                 0.0000                 0.0000
 IR Inten    --     8.4861                 7.9463                14.1784
 Raman Activ --     0.0000                 0.0000                 0.0000
 Depolar     --     0.0000                 0.0000                 0.0000
 Atom AN      X      Y      Z        X      Y      Z        X      Y      Z
   1   8    -0.00  -0.00   0.00     0.00   0.00   0.00     0.00   0.00  -0.00
   2   8    -0.00   0.00   0.00     0.00  -0.00   0.00     0.00  -0.00  -0.00
   3   7     0.00   0.00   0.00    -0.00  -0.00   0.00    -0.00  -0.00   0.00
   4   6    -0.00   0.00  -0.00     0.00  -0.00  -0.00     0.00   0.00  -0.00
   5   6     0.00  -0.00   0.00    -0.00   0.00   0.00    -0.00   0.00  -0.00
   6   6     0.00   0.00   0.00    -0.00  -0.00   0.00    -0.00  -0.00  -0.00
   7   6     0.00   0.00   0.00    -0.00  -0.00   0.00    -0.00  -0.01  -0.00
   8   6    -0.00  -0.00   0.00     0.00   0.00   0.00     0.00  -0.00   0.00
   9   6     0.00   0.00  -0.00    -0.00  -0.00  -0.00    -0.00  -0.00   0.00
  10   6    -0.00  -0.00  -0.01     0.00   0.01  -0.00    -0.01   0.01   0.00
  11   6    -0.01  -0.08  -0.27     0.02   0.19  -0.12    -0.19   0.17   0.00
  12   1    -0.00   0.00  -0.00     0.00  -0.00  -0.00     0.00  -0.00  -0.00
  13   1    -0.00  -0.00  -0.00     0.00   0.00   0.00     0.00   0.01   0.00
  14   1    -0.00  -0.00  -0.00     0.00   0.00  -0.00     0.00   0.00   0.00
  15   1    -0.00  -0.00  -0.00     0.00   0.00  -0.00     0.01   0.04   0.00
  16   1    -0.00   0.00  -0.00     0.00  -0.00   0.00    -0.00   0.00   0.00
  17   1     0.06   0.51   0.75    -0.02  -0.16  -0.29    -0.02   0.02  -0.01
  18   1     0.00  -0.01  -0.03    -0.01   0.04  -0.02     0.73  -0.63  -0.02
  19   1    -0.01  -0.21   0.23    -0.04  -0.53   0.74    -0.02   0.01   0.02
  20   1    -0.00   0.00  -0.00     0.00  -0.00   0.00     0.00  -0.00  -0.00
                     49                     50                     51
                        a                      a                      a 
 Frequencies --  3073.8825              3086.6639              3110.0706
 Red. masses --     1.8296                 1.8043                 1.8604
 Frc consts  --     0.0000                 0.0000                 0.0000
 IR Inten    --    79.5525                42.8659                56.0900
 Raman Activ --     0.0000                 0.0000                 0.0000
 Depolar     --     0.0000                 0.0000                 0.0000
 Atom AN      X      Y      Z        X      Y      Z        X      Y      Z
   1   8     0.00   0.00   0.00    -0.00  -0.00  -0.00    -0.00   0.00   0.00
   2   8    -0.00   0.00   0.00     0.00  -0.00  -0.00     0.00  -0.00  -0.00
   3   7    -0.00   0.00  -0.00    -0.00  -0.00  -0.00     0.00  -0.00  -0.00
   4   6    -0.00   0.00   0.00    -0.01  -0.00   0.00    -0.00   0.00   0.00
   5   6    -0.01   0.01   0.00     0.01  -0.00  -0.00     0.00  -0.00  -0.00
   6   6    -0.00  -0.01  -0.00    -0.08  -0.25  -0.00    -0.03  -0.07  -0.00
   7   6    -0.09  -0.26  -0.00     0.00   0.00   0.00     0.00   0.01   0.00
   8   6     0.01  -0.01  -0.00    -0.04   0.05   0.00     0.18  -0.20  -0.00
   9   6    -0.01  -0.00  -0.00    -0.00   0.00   0.00     0.01   0.00   0.00
  10   6     0.00  -0.00  -0.00    -0.00   0.00   0.00    -0.00   0.00  -0.00
  11   6     0.01  -0.01  -0.00     0.00  -0.00  -0.00     0.00  -0.00   0.00
  12   1     0.06  -0.07  -0.00    -0.02   0.02   0.00    -0.01   0.02   0.00
  13   1     0.01   0.03   0.00     0.30   0.88   0.00     0.08   0.23   0.00
  14   1    -0.00  -0.00   0.00     0.00   0.01   0.00     0.00   0.00   0.00
  15   1     0.30   0.91   0.00    -0.00  -0.01  -0.00    -0.01  -0.04  -0.00
  16   1    -0.03   0.03   0.00     0.16  -0.19  -0.00    -0.61   0.70   0.00
  17   1     0.00   0.00   0.00     0.00   0.00   0.00     0.00   0.00   0.00
  18   1    -0.03   0.03   0.00    -0.00   0.00   0.00    -0.00   0.00   0.00
  19   1     0.00   0.00  -0.00     0.00   0.00  -0.00    -0.00   0.00  -0.00
  20   1     0.00  -0.01  -0.00     0.00   0.00   0.00    -0.00  -0.01  -0.00
                     52                     53                     54
                        a                      a                      a 
 Frequencies --  3126.2496              3404.6103              3457.5295
 Red. masses --     1.8458                 1.8334                 1.8683
 Frc consts  --     0.0000                 0.0000                 0.0000
 IR Inten    --    10.7723                46.0994               157.0778
 Raman Activ --     0.0000                 0.0000                 0.0000
 Depolar     --     0.0000                 0.0000                 0.0000
 Atom AN      X      Y      Z        X      Y      Z        X      Y      Z
   1   8     0.00   0.00   0.00    -0.00   0.00   0.00    -0.05  -0.23  -0.00
   2   8     0.00  -0.00  -0.00    -0.00  -0.01   0.00     0.00  -0.00  -0.00
   3   7     0.00   0.00  -0.00     0.04   0.25   0.00     0.00   0.00   0.00
   4   6     0.01   0.00  -0.00     0.00   0.01   0.00    -0.00   0.00   0.00
   5   6     0.18  -0.21  -0.00    -0.00  -0.00   0.00    -0.00  -0.00  -0.00
   6   6     0.00   0.01   0.00    -0.00  -0.00  -0.00     0.00  -0.00  -0.00
   7   6    -0.01  -0.03  -0.00    -0.00   0.00  -0.00     0.00  -0.00  -0.00
   8   6    -0.00   0.00   0.00     0.00   0.00  -0.00     0.00  -0.00  -0.00
   9   6    -0.00   0.00   0.00     0.00  -0.00  -0.00    -0.01  -0.01  -0.00
  10   6    -0.00   0.00   0.00     0.00   0.01  -0.00    -0.00   0.00  -0.00
  11   6     0.00   0.00  -0.00     0.00   0.00   0.00     0.00   0.00   0.00
  12   1    -0.62   0.73   0.00     0.00  -0.00  -0.00     0.00   0.00  -0.00
  13   1    -0.01  -0.02  -0.00     0.00   0.00   0.00    -0.00   0.00   0.00
  14   1    -0.00  -0.00  -0.00    -0.18  -0.95  -0.00    -0.00  -0.01  -0.00
  15   1     0.03   0.09   0.00    -0.00  -0.00  -0.00     0.00   0.01   0.00
  16   1     0.01  -0.01  -0.00    -0.00   0.00  -0.00    -0.01   0.01   0.00
  17   1    -0.00  -0.00  -0.00    -0.00  -0.00  -0.00     0.00  -0.00  -0.00
  18   1     0.00   0.00  -0.00     0.00  -0.00  -0.00     0.00  -0.00  -0.00
  19   1    -0.00  -0.00   0.00    -0.00  -0.00   0.00     0.00  -0.00   0.00
  20   1     0.00  -0.00  -0.00    -0.00  -0.01  -0.00     0.21   0.95   0.00
