      -----------------------------------------------------------      
     |                   =====================                   |     
     |                           x T B                           |     
     |                   =====================                   |     
     |                         S. Grimme                         |     
     |          Mulliken Center for Theoretical Chemistry        |     
     |                    University of Bonn                     |     
      -----------------------------------------------------------      

   * xtb version 6.7.1 (edcfbbe) compiled by 'conda@c0858423619e' on 2025-09-04

   xtb is free software: you can redistribute it and/or modify it under
   the terms of the GNU Lesser General Public License as published by
   the Free Software Foundation, either version 3 of the License, or
   (at your option) any later version.
   
   xtb is distributed in the hope that it will be useful,
   but WITHOUT ANY WARRANTY; without even the implied warranty of
   MERCHANTABILITY or FITNESS FOR A PARTICULAR PURPOSE.  See the
   GNU Lesser General Public License for more details.
   
   Cite this work as:
   * C. Bannwarth, E. Caldeweyher, S. Ehlert, A. Hansen, P. Pracht,
     J. Seibert, S. Spicher, S. Grimme, WIREs Comput. Mol. Sci., 2020, 11,
     e01493. DOI: 10.1002/wcms.1493
   
   for GFN2-xTB:
   * C. Bannwarth, S. Ehlert and S. Grimme., J. Chem. Theory Comput., 2019,
     15, 1652-1671. DOI: 10.1021/acs.jctc.8b01176
   for GFN1-xTB:
   * S. Grimme, C. Bannwarth, P. Shushkov, J. Chem. Theory Comput., 2017,
     13, 1989-2009. DOI: 10.1021/acs.jctc.7b00118
   for GFN0-xTB:
   * P. Pracht, E. Caldeweyher, S. Ehlert, S. Grimme, ChemRxiv, 2019, preprint.
     DOI: 10.26434/chemrxiv.8326202.v1
   for GFN-FF:
   * S. Spicher and S. Grimme, Angew. Chem. Int. Ed., 2020, 59, 15665-15673.
     DOI: 10.1002/anie.202004239
   
   for ALPB and GBSA implicit solvation:
   * S. Ehlert, M. Stahn, S. Spicher, S. Grimme, J. Chem. Theory Comput.,
     2021, 17, 4250-4261. DOI: 10.1021/acs.jctc.1c00471
   
   for ddCOSMO and CPCM-X implicit solvation:
   * M. Stahn, S. Ehlert, S. Grimme, J. Phys. Chem. A,
     2023, XX, XXXX-XXXX. DOI: 10.1021/acs.jpca.3c04382
   
   for DFT-D4:
   * E. Caldeweyher, C. Bannwarth and S. Grimme, J. Chem. Phys., 2017,
     147, 034112. DOI: 10.1063/1.4993215
   * E. Caldeweyher, S. Ehlert, A. Hansen, H. Neugebauer, S. Spicher,
     C. Bannwarth and S. Grimme, J. Chem. Phys., 2019, 150, 154122.
     DOI: 10.1063/1.5090222
   * E. Caldeweyher, J.-M. Mewes, S. Ehlert and S. Grimme, Phys. Chem. Chem. Phys.
     2020, 22, 8499-8512. DOI: 10.1039/D0CP00502A
   
   for sTDA-xTB:
   * S. Grimme and C. Bannwarth, J. Chem. Phys., 2016, 145, 054103.
     DOI: 10.1063/1.4959605
   
   in the mass-spec context:
   * V. Asgeirsson, C. Bauer and S. Grimme, Chem. Sci., 2017, 8, 4879.
     DOI: 10.1039/c7sc00601b
   * J. Koopman and S. Grimme, ACS Omega 2019, 4, 12, 15120-15133.
     DOI: 10.1021/acsomega.9b02011
   
   for metadynamics refer to:
   * S. Grimme, J. Chem. Theory Comput., 2019, 155, 2847-2862
     DOI: 10.1021/acs.jctc.9b00143
   
   for SPH calculations refer to:
   * S. Spicher and S. Grimme, J. Chem. Theory Comput., 2021, 17, 1701-1714
     DOI: 10.1021/acs.jctc.0c01306
   
   for ONIOM refer to:
   * C. Plett, A. Katbashev, S. Ehlert, S. Grimme, M. Bursch,
     Phys. Chem. Chem. Phys., 2023, 25, 17860-17868. DOI: 10.1039/D3CP02178E
   
   for DIPRO refer to:
   * J. Kohn, N. Gildemeister, S. Grimme, D. Fazzi, A. Hansen,
     J. Chem. Phys., 2023, just accepted.
   
   for PTB refer to:
   * S. Grimme, M. Mueller, A. Hansen, J. Chem. Phys., 2023, 158, 124111.
     DOI: 10.1063/5.0137838
   
   with help from (in alphabetical order)
   P. Atkinson, C. Bannwarth, F. Bohle, G. Brandenburg, E. Caldeweyher
   M. Checinski, S. Dohm, S. Ehlert, S. Ehrlich, I. Gerasimov, C. Hölzer
   A. Katbashev, J. Kohn, J. Koopman, C. Lavigne, S. Lehtola, F. März, M. Müller,
   F. Musil, H. Neugebauer, J. Pisarek, C. Plett, P. Pracht, F. Pultar,
   J. Seibert, P. Shushkov, S. Spicher, M. Stahn, M. Steiner, T. Strunk,
   J. Stückrath, T. Rose, and J. Unsleber
   
 * started run on 2026/06/07 at 14:02:22.734     
   ID    Z sym.   atoms
    1    8 O      1, 2
    2    7 N      3
    3    6 C      4-11
    4    1 H      12-20

           -------------------------------------------------
          |                Calculation Setup                |
           -------------------------------------------------

          program call               : xtb xtbopt.xyz --hess --alpb water
          hostname                   : fedora
          coordinate file            : xtbopt.xyz
          omp threads                :                    16


           -------------------------------------------------
          |                 G F N 2 - x T B                 |
           -------------------------------------------------

        Reference                      10.1021/acs.jctc.8b01176
      * Hamiltonian:
        H0-scaling (s, p, d)           1.850000    2.230000    2.230000
        zeta-weighting                 0.500000
      * Dispersion:
        s8                             2.700000
        a1                             0.520000
        a2                             5.000000
        s9                             5.000000
      * Repulsion:
        kExp                           1.500000    1.000000
        rExp                           1.000000
      * Coulomb:
        alpha                          2.000000
        third order                    shell-resolved
        anisotropic                    true
        a3                             3.000000
        a5                             4.000000
        cn-shift                       1.200000
        cn-exp                         4.000000
        max-rad                        5.000000

      * Solvation model:               ALPB
        Solvent                        water
        Parameter file                 internal GFN2-xTB/ALPB
        Dielectric constant                8.0200E+01
        Reference state                gsolv [1 M gas/solution]
        Free energy shift                  1.0808E-03 Eh       6.7819E-01 kcal/mol
        Temperature                        2.9815E+02 K
        Density                            1.0000E+00 kg/L
        Solvent mass                       1.8000E+01 g/mol
        Interaction kernel             P16
        Born radius scaling (c1)           1.4744E+00
        Born radii integrator          GBOBC
        Born offset                        0.0000E+00 a0       0.0000E+00 AA
        H-bond correction              true
        Ion screening                  false
        Surface tension                    1.0000E-05 Eh       1.5569E+01 dyn/cm
        Grid points                               230 per atom

          ...................................................
          :                      SETUP                      :
          :.................................................:
          :  # basis functions                  53          :
          :  # atomic orbitals                  53          :
          :  # shells                           31          :
          :  # electrons                        58          :
          :  max. iterations                   250          :
          :  Hamiltonian                  GFN2-xTB          :
          :  restarted?                      false          :
          :  GBSA solvation                   true          :
          :  PC potential                    false          :
          :  electronic temp.          300.0000000     K    :
          :  accuracy                    1.0000000          :
          :  -> integral cutoff          0.2500000E+02      :
          :  -> integral neglect         0.1000000E-07      :
          :  -> SCF convergence          0.1000000E-05 Eh   :
          :  -> wf. convergence          0.1000000E-03 e    :
          :  Broyden damping             0.4000000          :
          :  net charge                          0          :
          :  unpaired electrons                  0          :
          ...................................................

 iter      E             dE          RMSdq      gap      omega  full diag
   1    -33.2083988 -0.332084E+02  0.476E+00    3.57       0.0  T
   2    -33.2589492 -0.505504E-01  0.266E+00    3.63       1.0  T
   3    -33.2592262 -0.276969E-03  0.986E-01    3.70       1.0  T
   4    -33.2603759 -0.114972E-02  0.251E-01    3.65       1.0  T
   5    -33.2610693 -0.693352E-03  0.823E-02    3.66       1.0  T
   6    -33.2610736 -0.430740E-05  0.376E-02    3.66       1.0  T
   7    -33.2610785 -0.491214E-05  0.156E-02    3.65       1.4  T
   8    -33.2610795 -0.101845E-05  0.537E-03    3.65       4.2  T
   9    -33.2610796 -0.919738E-07  0.325E-03    3.66       6.9  T
  10    -33.2610797 -0.389406E-07  0.885E-04    3.65      25.3  T
  11    -33.2610797 -0.215561E-08  0.424E-04    3.65      52.8  T

   *** convergence criteria satisfied after 11 iterations ***

         #    Occupation            Energy/Eh            Energy/eV
      -------------------------------------------------------------
         1        2.0000           -0.7072895             -19.2463
       ...           ...                  ...                  ...
        23        2.0000           -0.4688398             -12.7578
        24        2.0000           -0.4578891             -12.4598
        25        2.0000           -0.4314894             -11.7414
        26        2.0000           -0.4269437             -11.6177
        27        2.0000           -0.4073141             -11.0836
        28        2.0000           -0.3974958             -10.8164
        29        2.0000           -0.3696612             -10.0590 (HOMO)
        30                         -0.2353520              -6.4043 (LUMO)
        31                         -0.2252595              -6.1296
        32                         -0.1862839              -5.0690
        33                         -0.0841000              -2.2885
        34                          0.0137222               0.3734
       ...                                ...                  ...
        53                          0.6737025              18.3324
      -------------------------------------------------------------
                  HL-Gap            0.1343092 Eh            3.6547 eV
             Fermi-level           -0.3025066 Eh           -8.2316 eV

 SCC (total)                   0 d,  0 h,  0 min,  0.100 sec
 SCC setup                      ...        0 min,  0.003 sec (  2.954%)
 Dispersion                     ...        0 min,  0.003 sec (  2.621%)
 classical contributions        ...        0 min,  0.000 sec (  0.174%)
 integral evaluation            ...        0 min,  0.007 sec (  6.624%)
 iterations                     ...        0 min,  0.069 sec ( 68.731%)
 molecular gradient             ...        0 min,  0.019 sec ( 18.692%)
 printout                       ...        0 min,  0.000 sec (  0.167%)

         :::::::::::::::::::::::::::::::::::::::::::::::::::::
         ::                     SUMMARY                     ::
         :::::::::::::::::::::::::::::::::::::::::::::::::::::
         :: total energy             -32.799849564308 Eh    ::
         :: total w/o Gsasa/hb       -32.793442062252 Eh    ::
         :: gradient norm              0.000438882016 Eh/a0 ::
         :: HOMO-LUMO gap              3.654739765127 eV    ::
         ::.................................................::
         :: SCC energy               -33.261124653219 Eh    ::
         :: -> isotropic ES            0.082939404090 Eh    ::
         :: -> anisotropic ES          0.001605531574 Eh    ::
         :: -> anisotropic XC          0.010158284615 Eh    ::
         :: -> dispersion             -0.015958226346 Eh    ::
         :: -> Gsolv                  -0.022170826800 Eh    ::
         ::    -> Gelec               -0.015763324744 Eh    ::
         ::    -> Gsasa                0.001070200538 Eh    ::
         ::    -> Ghb                 -0.008558462292 Eh    ::
         ::    -> Gshift               0.001080759698 Eh    ::
         :: repulsion energy           0.461275088910 Eh    ::
         :: add. restraining           0.000000000000 Eh    ::
         :: total charge              -0.000000000000 e     ::
         :::::::::::::::::::::::::::::::::::::::::::::::::::::

           ------------------------------------------------- 
          |                Numerical Hessian                |
           ------------------------------------------------- 
step length          :   0.00500
SCC accuracy         :   0.30000
Hessian scale factor :   1.00000
frozen atoms in %    :   0.00000    0
RMS gradient         :   0.00044
estimated CPU  time      0.59 min
estimated wall time      0.04 min

writing file <hessian>.

 projected vibrational frequencies (cm⁻¹)
eigval :       -0.00    -0.00     0.00     0.00     0.00     0.00
eigval :       48.08    69.30   102.27   142.89   170.48   307.09
eigval :      310.93   365.62   372.20   393.15   403.17   479.69
eigval :      499.74   552.92   601.53   612.27   640.32   669.12
eigval :      782.97   806.49   856.50   874.43   896.36   912.81
eigval :      965.71   997.46   998.25  1024.22  1092.66  1135.17
eigval :     1182.69  1200.95  1215.04  1263.36  1285.25  1340.87
eigval :     1365.61  1394.95  1440.07  1448.17  1459.91  1482.97
eigval :     1582.67  1609.44  1658.95  3033.98  3036.60  3067.85
eigval :     3073.88  3086.66  3110.07  3126.25  3404.61  3457.53
           -------------------------------------------------
          |                Property Printout                |
           -------------------------------------------------

    * Orbital Energies and Occupations

         #    Occupation            Energy/Eh            Energy/eV
      -------------------------------------------------------------
         1        2.0000           -0.7072931             -19.2464
       ...           ...                  ...                  ...
        17        2.0000           -0.4986382             -13.5686
        18        2.0000           -0.4873001             -13.2601
        19        2.0000           -0.4862597             -13.2318
        20        2.0000           -0.4799904             -13.0612
        21        2.0000           -0.4768901             -12.9768
        22        2.0000           -0.4702842             -12.7971
        23        2.0000           -0.4688446             -12.7579
        24        2.0000           -0.4578923             -12.4599
        25        2.0000           -0.4314938             -11.7415
        26        2.0000           -0.4269461             -11.6178
        27        2.0000           -0.4073166             -11.0836
        28        2.0000           -0.3975014             -10.8166
        29        2.0000           -0.3696655             -10.0591 (HOMO)
        30                         -0.2353563              -6.4044 (LUMO)
        31                         -0.2252620              -6.1297
        32                         -0.1862882              -5.0692
        33                         -0.0841035              -2.2886
        34                          0.0137185               0.3733
        35                          0.0760055               2.0682
        36                          0.0946203               2.5747
        37                          0.1360608               3.7024
        38                          0.1575030               4.2859
        39                          0.1633144               4.4440
        40                          0.1723252               4.6892
       ...                                ...                  ...
        53                          0.6736994              18.3323
      -------------------------------------------------------------
                  HL-Gap            0.1343092 Eh            3.6547 eV
             Fermi-level           -0.3025109 Eh           -8.2317 eV

     #   Z          covCN         q      C6AA      α(0)
     1   8 O        1.659    -0.456    21.962     6.326
     2   8 O        0.857    -0.515    24.124     6.585
     3   7 N        2.697    -0.165    24.577     7.363
     4   6 C        2.904     0.062    26.617     8.459
     5   6 C        2.921    -0.050    29.248     8.869
     6   6 C        2.926    -0.059    29.477     8.904
     7   6 C        2.919    -0.075    29.871     8.963
     8   6 C        2.919    -0.061    29.514     8.909
     9   6 C        2.845     0.141    24.930     8.183
    10   6 C        2.746     0.284    22.187     7.713
    11   6 C        3.759    -0.167    23.792     6.954
    12   1 H        0.926     0.059     2.208     2.324
    13   1 H        0.926     0.056     2.250     2.346
    14   1 H        0.860     0.225     0.989     1.558
    15   1 H        0.926     0.047     2.361     2.403
    16   1 H        0.926     0.058     2.226     2.333
    17   1 H        0.925     0.086     1.919     2.166
    18   1 H        0.925     0.075     2.029     2.228
    19   1 H        0.925     0.085     1.926     2.170
    20   1 H        0.805     0.372     0.539     1.154

 Mol. C6AA /au·bohr⁶  :       4598.768101
 Mol. C8AA /au·bohr⁸  :     109066.127237
 Mol. α(0) /au        :        105.908164


Wiberg/Mayer (AO) data.
largest (>0.10) Wiberg bond orders for each atom

 ---------------------------------------------------------------------------
     #   Z sym  total        # sym  WBO       # sym  WBO       # sym  WBO
 ---------------------------------------------------------------------------
     1   8 O    2.070 --     9 C    1.074    20 H    0.842
     2   8 O    1.942 --    10 C    1.634     3 N    0.164
     3   7 N    3.507 --    10 C    1.246     4 C    1.066    14 H    0.917
                             2 O    0.164
     4   6 C    3.962 --     5 C    1.377     6 C    1.358     3 N    1.066
     5   6 C    3.989 --     7 C    1.450     4 C    1.377    12 H    0.963
                             8 C    0.104
     6   6 C    3.988 --     8 C    1.473     4 C    1.358    13 H    0.964
                             7 C    0.102
     7   6 C    3.987 --     5 C    1.450     9 C    1.374    15 H    0.966
                             6 C    0.102
     8   6 C    3.988 --     6 C    1.473     9 C    1.353    16 H    0.967
                             5 C    0.104
     9   6 C    3.940 --     7 C    1.374     8 C    1.353     1 O    1.074
    10   6 C    3.937 --     2 O    1.634     3 N    1.246    11 C    0.990
    11   6 C    3.988 --    10 C    0.990    18 H    0.983    19 H    0.964
                            17 H    0.963
    12   1 H    0.996 --     5 C    0.963
    13   1 H    0.997 --     6 C    0.964
    14   1 H    0.949 --     3 N    0.917
    15   1 H    0.997 --     7 C    0.966
    16   1 H    0.996 --     8 C    0.967
    17   1 H    0.992 --    11 C    0.963
    18   1 H    0.994 --    11 C    0.983
    19   1 H    0.992 --    11 C    0.964
    20   1 H    0.862 --     1 O    0.842
 ---------------------------------------------------------------------------

Topologies differ in total number of bonds
Writing topology from bond orders to xtbtopo.mol

molecular dipole:
                 x           y           z       tot (Debye)
 q only:        0.193      -1.380      -0.003
   full:        0.091      -1.387      -0.003       3.534
molecular quadrupole (traceless):
                xx          xy          yy          xz          yz          zz
 q only:        1.877      20.846       1.319       0.035       0.002      -3.196
  q+dip:        1.008      23.429       4.382       0.044       0.006      -5.390
   full:        0.259      23.793       2.565       0.044       0.004      -2.824

           -------------------------------------------------
          |               Frequency Printout                |
           -------------------------------------------------
 projected vibrational frequencies (cm⁻¹)
eigval :       -0.00    -0.00     0.00     0.00     0.00     0.00
eigval :       48.08    69.30   102.27   142.89   170.48   307.09
eigval :      310.93   365.62   372.20   393.15   403.17   479.69
eigval :      499.74   552.92   601.53   612.27   640.32   669.12
eigval :      782.97   806.49   856.50   874.43   896.36   912.81
eigval :      965.71   997.46   998.25  1024.22  1092.66  1135.17
eigval :     1182.69  1200.95  1215.04  1263.36  1285.25  1340.87
eigval :     1365.61  1394.95  1440.07  1448.17  1459.91  1482.97
Molecule has the following symmetry elements: (sigma) 
It seems to be the Cs point group
eigval :     1582.67  1609.44  1658.95  3033.98  3036.60  3067.85
eigval :     3073.88  3086.66  3110.07  3126.25  3404.61  3457.53
 reduced masses (amu)
   1: 11.59   2: 12.29   3: 12.47   4: 12.78   5: 11.82   6: 11.98   7: 12.52   8: 11.01
   9:  1.58  10: 12.17  11: 12.12  12: 13.31  13: 10.88  14:  5.06  15: 11.03  16:  6.58
  17: 10.97  18: 11.87  19:  8.61  20:  9.19  21: 11.51  22:  3.36  23: 11.53  24: 11.41
  25: 12.12  26:  5.19  27:  3.29  28: 11.69  29:  2.70  30:  3.80  31: 12.05  32:  6.30
  33:  5.55  34:  6.85  35:  4.13  36:  2.51  37:  2.10  38:  5.42  39:  8.07  40:  7.18
  41:  6.86  42: 11.45  43:  3.22  44: 10.52  45:  2.78  46:  8.41  47:  1.57  48:  9.69
  49: 11.54  50: 11.58  51: 13.07  52:  1.87  53:  1.56  54:  1.74  55:  1.83  56:  1.80
  57:  1.86  58:  1.85  59:  1.83  60:  1.87
 IR intensities (km·mol⁻¹)
   1:  0.55   2:  0.14   3:  0.13   4:  1.44   5:  0.94   6:  1.11   7: 14.92   8:  5.65
   9:  0.10  10: 15.29  11:  0.00  12:  0.14  13:  2.34  14:135.79  15:  0.07  16: 74.87
  17: 14.26  18: 35.10  19:  3.34  20: 55.52  21:  0.40  22: 51.47  23:  1.02  24:  0.17
  25: 40.78  26: 62.16  27:  0.02  28: 20.45  29:  0.00  30:  0.53  31: 63.81  32: 10.66
  33: 25.02  34:  4.84  35:392.30  36: 61.77  37: 14.05  38:245.68  39: 20.38  40:472.24
  41: 18.76  42: 29.00  43: 42.09  44:273.38  45: 85.42  46:255.64  47: 11.65  48:495.52
  49: 17.78  50: 38.91  51:908.45  52:  8.49  53:  7.95  54: 14.18  55: 79.55  56: 42.87
  57: 56.09  58: 10.77  59: 46.10  60:157.08
 Raman intensities (Ä⁴*amu⁻¹)
   1:  0.00   2:  0.00   3:  0.00   4:  0.00   5:  0.00   6:  0.00   7:  0.00   8:  0.00
   9:  0.00  10:  0.00  11:  0.00  12:  0.00  13:  0.00  14:  0.00  15:  0.00  16:  0.00
  17:  0.00  18:  0.00  19:  0.00  20:  0.00  21:  0.00  22:  0.00  23:  0.00  24:  0.00
  25:  0.00  26:  0.00  27:  0.00  28:  0.00  29:  0.00  30:  0.00  31:  0.00  32:  0.00
  33:  0.00  34:  0.00  35:  0.00  36:  0.00  37:  0.00  38:  0.00  39:  0.00  40:  0.00
  41:  0.00  42:  0.00  43:  0.00  44:  0.00  45:  0.00  46:  0.00  47:  0.00  48:  0.00
  49:  0.00  50:  0.00  51:  0.00  52:  0.00  53:  0.00  54:  0.00  55:  0.00  56:  0.00
  57:  0.00  58:  0.00  59:  0.00  60:  0.00
 output can be read by thermo (or use thermo option).
 writing <g98.out> molden fake output.
 recommended (thermochemical) frequency scaling factor: 1.0
           -------------------------------------------------
          |             Thermodynamic Functions             |
           -------------------------------------------------

cs  symmetry found (for desy threshold:  0.10E+00) used in thermo

          ...................................................
          :                      SETUP                      :
          :.................................................:
          :  # frequencies                          54      :
          :  # imaginary freq.                       0      :
          :  linear?                             false      :
          :  only rotor calc.                    false      :
          :  symmetry                               cs      :
          :  rotational number                       1      :
          :  scaling factor                  1.0000000      :
          :  rotor cutoff                   50.0000000 cm⁻¹ :
          :  imag. cutoff                  -20.0000000 cm⁻¹ :
          :.................................................:

    mode    ω/cm⁻¹     T·S(HO)/kcal·mol⁻¹    T·S(FR)/kcal·mol⁻¹   T·S(vib)
   ------------------------------------------------------------------------
       1     48.08    -1.45945 ( 46.08%)    -1.06803 ( 53.92%)    -1.24841
       2     69.30    -1.24426 ( 78.67%)    -0.95977 ( 21.33%)    -1.18359
       3    102.27    -1.01686 ( 94.60%)    -0.84449 (  5.40%)    -1.00755
       4    142.89    -0.82433 ( 98.52%)    -0.74543 (  1.48%)    -0.82316
       5    170.48    -0.72456 ( 99.27%)    -0.69314 (  0.73%)    -0.72433
   ------------------------------------------------------------------------

   temp. (K)  partition function   enthalpy   heat capacity  entropy
                                   cal/mol     cal/K/mol   cal/K/mol   J/K/mol
 298.15  VIB   971.                 4831.683     33.018     28.929
         ROT  0.885E+06              888.752      2.981     30.193
         INT  0.860E+09             5720.436     35.999     59.123
         TR   0.180E+28             1481.254      4.968     40.931
         TOT                        7201.6897    40.9672   100.0539   418.6254

       T/K    H(0)-H(T)+PV         H(T)/Eh          T*S/Eh         G(T)/Eh
   ------------------------------------------------------------------------
    298.15    0.114766E-01    0.165053E+00    0.475388E-01    0.117514E+00
   ------------------------------------------------------------------------

         :::::::::::::::::::::::::::::::::::::::::::::::::::::
         ::                  THERMODYNAMIC                  ::
         :::::::::::::::::::::::::::::::::::::::::::::::::::::
         :: total free energy         -32.682335617172 Eh   ::
         ::.................................................::
         :: total energy              -32.799849566414 Eh   ::
         :: zero point energy           0.153576152955 Eh   ::
         :: G(RRHO) w/o ZPVE           -0.036062203713 Eh   ::
         :: G(RRHO) contrib.            0.117513949242 Eh   ::
         :::::::::::::::::::::::::::::::::::::::::::::::::::::

           -------------------------------------------------
          | TOTAL ENERGY              -32.799849566414 Eh   |
          | TOTAL ENTHALPY            -32.634796790409 Eh   |
          | TOTAL FREE ENERGY         -32.682335617172 Eh   |
          | GRADIENT NORM               0.000438608981 Eh/α |
          | HOMO-LUMO GAP               3.654740605713 eV   |
           -------------------------------------------------

------------------------------------------------------------------------
 * finished run on 2026/06/07 at 14:02:24.711     
------------------------------------------------------------------------
 total:
 * wall-time:     0 d,  0 h,  0 min,  1.976 sec
 *  cpu-time:     0 d,  0 h,  0 min, 29.869 sec
 * ratio c/w:    15.115 speedup
 SCF:
 * wall-time:     0 d,  0 h,  0 min,  0.100 sec
 *  cpu-time:     0 d,  0 h,  0 min,  1.482 sec
 * ratio c/w:    14.808 speedup
 analytical hessian:
 * wall-time:     0 d,  0 h,  0 min,  1.840 sec
 *  cpu-time:     0 d,  0 h,  0 min, 27.845 sec
 * ratio c/w:    15.137 speedup

