 Entering Gaussian System
 *********************************************
 Gaussian 98:
 frequency output generated by the xtb code
 *********************************************
                         Standard orientation:
 --------------------------------------------------------------------
  Center     Atomic     Atomic              Coordinates (Angstroms)
  Number     Number      Type              X           Y           Z
 --------------------------------------------------------------------
    1          8             0       -2.759519    0.025373    0.000415
    2          7             0        2.777676    0.003805   -0.002506
    3          6             0        1.406568   -0.003102   -0.000678
    4          6             0        0.698644   -1.204066   -0.000358
    5          6             0        0.686444    1.193197   -0.000359
    6          6             0       -1.389790   -0.013443    0.000117
    7          6             0       -0.683286   -1.207950   -0.000016
    8          6             0       -0.692363    1.189108   -0.000006
    9          1             0        1.238509   -2.140168   -0.000491
   10          1             0        1.220774    2.132279   -0.000500
   11          1             0       -1.217006   -2.149926    0.000155
   12          1             0       -1.248824    2.112769    0.000171
   13          1             0        3.288807   -0.856859    0.002243
   14          1             0        3.278862    0.870257    0.002221
   15          1             0       -3.102002   -0.875692    0.000382
 --------------------------------------------------------------------
     1 basis functions        1 primitive gaussians
     1 alpha electrons        1 beta electrons

 Harmonic frequencies (cm**-1), IR intensities (km*mol⁻¹),
 Raman scattering activities (A**4/amu), Raman depolarization ratios,
 reduced masses (AMU), force constants (mDyne/A) and normal coordinates:
                      1                      2                      3
                        a                      a                      a 
 Frequencies --  -448.0624               141.9749               317.9043
 Red. masses --     4.0761                12.0349                10.9479
 Frc consts  --     0.0000                 0.0000                 0.0000
 IR Inten    --   272.2893                 1.4443                 5.5680
 Raman Activ --     0.0000                 0.0000                 0.0000
 Depolar     --     0.0000                 0.0000                 0.0000
 Atom AN      X      Y      Z        X      Y      Z        X      Y      Z
   1   8    -0.00   0.00  -0.00    -0.00   0.00   0.54     0.04   0.51  -0.00
   2   7    -0.00   0.00   0.47     0.00   0.00   0.50    -0.01   0.49   0.00
   3   6     0.00  -0.00  -0.11    -0.00   0.00  -0.06    -0.01  -0.21   0.00
   4   6     0.00  -0.00  -0.04    -0.00   0.00  -0.29     0.02  -0.23  -0.00
   5   6     0.00   0.00  -0.03    -0.00  -0.00  -0.28    -0.02  -0.22   0.00
   6   6     0.00   0.00   0.01    -0.00  -0.00  -0.05     0.02  -0.17  -0.00
   7   6     0.00   0.00   0.01    -0.00  -0.00  -0.27    -0.04  -0.21   0.00
   8   6     0.00  -0.00   0.01    -0.00   0.00  -0.27     0.04  -0.19  -0.00
   9   1     0.00  -0.00  -0.01    -0.00   0.00  -0.10    -0.00  -0.07  -0.00
  10   1     0.00   0.00  -0.01    -0.00   0.00  -0.09     0.01  -0.07   0.00
  11   1     0.00   0.00   0.01    -0.00  -0.00  -0.09    -0.01  -0.06   0.00
  12   1     0.00  -0.00   0.01    -0.00  -0.00  -0.09     0.00  -0.06  -0.00
  13   1     0.00  -0.00  -0.62    -0.00   0.00   0.21     0.17   0.23   0.00
  14   1     0.00   0.00  -0.62    -0.00  -0.00   0.21    -0.18   0.23  -0.00
  15   1     0.00  -0.00   0.01    -0.00  -0.00   0.17    -0.13   0.18   0.00
                      4                      5                      6
                        a                      a                      a 
 Frequencies --   356.4136               369.8069               395.4331
 Red. masses --    10.3918                 7.0005                 3.3888
 Frc consts  --     0.0000                 0.0000                 0.0000
 IR Inten    --     0.0069                39.4735               131.3949
 Raman Activ --     0.0000                 0.0000                 0.0000
 Depolar     --     0.0000                 0.0000                 0.0000
 Atom AN      X      Y      Z        X      Y      Z        X      Y      Z
   1   8    -0.00  -0.00  -0.27     0.00  -0.00   0.20    -0.00  -0.00  -0.24
   2   7     0.00  -0.00   0.23    -0.00  -0.00  -0.06     0.00  -0.00   0.02
   3   6     0.00  -0.00  -0.35     0.00  -0.00   0.10     0.00  -0.00  -0.07
   4   6    -0.00   0.00  -0.23     0.00   0.00   0.40    -0.00  -0.00   0.11
   5   6    -0.00  -0.00  -0.39     0.00   0.00  -0.26     0.00  -0.00  -0.12
   6   6    -0.00   0.00   0.40     0.00   0.00  -0.08    -0.00   0.00  -0.04
   7   6    -0.00   0.00   0.24    -0.00   0.00  -0.43    -0.00   0.00  -0.18
   8   6     0.00  -0.00   0.38     0.00   0.00   0.24     0.00   0.00   0.27
   9   1    -0.00   0.00  -0.09     0.00   0.00   0.21    -0.00  -0.00   0.09
  10   1    -0.00  -0.00  -0.18     0.00   0.00  -0.17     0.00  -0.00  -0.05
  11   1     0.00   0.00   0.08    -0.00   0.00  -0.25    -0.00   0.00  -0.08
  12   1     0.00   0.00   0.16     0.00   0.00   0.16     0.00   0.00   0.16
  13   1    -0.00   0.00   0.20     0.00   0.00   0.22     0.00   0.00   0.22
  14   1    -0.00   0.00   0.10    -0.00   0.00  -0.31    -0.00   0.00  -0.18
  15   1    -0.00  -0.00  -0.25     0.00  -0.00  -0.41     0.00  -0.00   0.83
                      7                      8                      9
                        a                      a                      a 
 Frequencies --   407.9481               411.9513               441.5993
 Red. masses --     9.9749                 3.0349                12.7357
 Frc consts  --     0.0000                 0.0000                 0.0000
 IR Inten    --     7.7206                 1.4823                 0.3988
 Raman Activ --     0.0000                 0.0000                 0.0000
 Depolar     --     0.0000                 0.0000                 0.0000
 Atom AN      X      Y      Z        X      Y      Z        X      Y      Z
   1   8    -0.10  -0.39   0.00    -0.01  -0.02  -0.02     0.51  -0.06  -0.00
   2   7     0.05   0.25  -0.00     0.00   0.02  -0.00    -0.48   0.01   0.00
   3   6     0.05  -0.30   0.00     0.00  -0.02  -0.00    -0.38  -0.04   0.00
   4   6    -0.10  -0.21  -0.02    -0.01  -0.01   0.26    -0.05  -0.21  -0.00
   5   6     0.12  -0.25   0.02     0.01  -0.02  -0.25    -0.03   0.16  -0.00
   6   6    -0.06   0.33   0.00    -0.00   0.02  -0.01     0.37   0.05   0.00
   7   6    -0.10   0.31   0.01    -0.01   0.02  -0.16     0.02  -0.14  -0.00
   8   6     0.10   0.25  -0.01     0.01   0.01   0.16     0.03   0.23   0.00
   9   1    -0.12  -0.11  -0.01    -0.01  -0.01   0.14     0.04  -0.03  -0.00
  10   1     0.11  -0.11   0.01     0.01  -0.01  -0.13     0.07  -0.00  -0.00
  11   1    -0.10   0.13   0.01    -0.01   0.01  -0.08    -0.08   0.01  -0.00
  12   1     0.13   0.13  -0.01     0.01   0.01   0.09    -0.05   0.03  -0.00
  13   1     0.17   0.16   0.03     0.01   0.01  -0.61    -0.11   0.01  -0.00
  14   1    -0.14   0.16  -0.03    -0.01   0.01   0.62    -0.14   0.01   0.00
  15   1     0.14  -0.16  -0.01     0.01  -0.01   0.09     0.15  -0.02   0.00
                     10                     11                     12
                        a                      a                      a 
 Frequencies --   493.4065               616.4157               655.8140
 Red. masses --     8.6381                11.2819                11.4462
 Frc consts  --     0.0000                 0.0000                 0.0000
 IR Inten    --     0.3831                 1.1840                 0.2775
 Raman Activ --     0.0000                 0.0000                 0.0000
 Depolar     --     0.0000                 0.0000                 0.0000
 Atom AN      X      Y      Z        X      Y      Z        X      Y      Z
   1   8    -0.00   0.00  -0.16     0.01   0.16  -0.00    -0.00   0.00   0.07
   2   7    -0.00  -0.00  -0.11     0.01  -0.11   0.00    -0.00   0.00  -0.05
   3   6     0.00   0.00   0.54     0.01  -0.09  -0.00     0.00   0.00   0.53
   4   6     0.00   0.00  -0.10     0.39  -0.25  -0.00     0.00  -0.00  -0.31
   5   6     0.00  -0.00  -0.10    -0.40  -0.26   0.00     0.00   0.00  -0.31
   6   6    -0.00  -0.00   0.55    -0.00   0.09   0.00    -0.00   0.00  -0.52
   7   6     0.00   0.00  -0.13     0.39   0.24  -0.00     0.00   0.00   0.31
   8   6     0.00  -0.00  -0.11    -0.40   0.24   0.00     0.00  -0.00   0.31
   9   1    -0.00   0.00  -0.27     0.08  -0.09  -0.00     0.00  -0.00  -0.12
  10   1    -0.00   0.00  -0.28    -0.08  -0.09   0.00     0.00   0.00  -0.12
  11   1     0.00  -0.00  -0.28     0.08   0.08  -0.00     0.00   0.00   0.10
  12   1    -0.00  -0.00  -0.27    -0.09   0.08   0.00     0.00  -0.00   0.11
  13   1     0.00   0.00  -0.08    -0.06  -0.06   0.00     0.00   0.00  -0.05
  14   1     0.00  -0.00  -0.08     0.06  -0.06  -0.00     0.00  -0.00  -0.04
  15   1    -0.00  -0.00   0.07    -0.05   0.06   0.00    -0.00   0.00  -0.00
                     13                     14                     15
                        a                      a                      a 
 Frequencies --   761.0150               792.6935               851.2547
 Red. masses --    12.1271                 5.1026                 3.3275
 Frc consts  --     0.0000                 0.0000                 0.0000
 IR Inten    --    41.5354                46.8914                 0.5720
 Raman Activ --     0.0000                 0.0000                 0.0000
 Depolar     --     0.0000                 0.0000                 0.0000
 Atom AN      X      Y      Z        X      Y      Z        X      Y      Z
   1   8     0.50  -0.01  -0.00     0.00  -0.00   0.06     0.00  -0.00  -0.01
   2   7     0.41   0.00  -0.00     0.00  -0.00   0.05    -0.00  -0.00  -0.00
   3   6     0.16  -0.00   0.00    -0.00  -0.00  -0.29     0.00  -0.00   0.02
   4   6    -0.31   0.17  -0.00    -0.00  -0.00   0.26     0.00   0.00   0.22
   5   6    -0.30  -0.16  -0.00    -0.00   0.00   0.22    -0.00   0.00  -0.28
   6   6     0.10  -0.00  -0.00     0.00   0.00  -0.29    -0.00  -0.00   0.03
   7   6    -0.31  -0.08   0.00    -0.00  -0.00   0.23     0.00   0.00   0.19
   8   6    -0.30   0.08   0.00    -0.00   0.00   0.18    -0.00   0.00  -0.20
   9   1    -0.15   0.01   0.00    -0.00   0.00  -0.46    -0.00   0.00  -0.43
  10   1    -0.14  -0.01   0.00    -0.00  -0.00  -0.40     0.00   0.00   0.56
  11   1    -0.13   0.00  -0.00    -0.00  -0.00  -0.39    -0.00  -0.00  -0.39
  12   1    -0.13  -0.01  -0.00    -0.00   0.00  -0.31     0.00  -0.00   0.38
  13   1     0.11   0.00  -0.00    -0.00  -0.00   0.04     0.00   0.00  -0.00
  14   1     0.11   0.00  -0.00    -0.00   0.00   0.04    -0.00   0.00  -0.00
  15   1     0.11   0.00   0.00     0.00  -0.00   0.02    -0.00   0.00   0.00
                     16                     17                     18
                        a                      a                      a 
 Frequencies --   882.4317               882.8125               904.4454
 Red. masses --    11.5347                 2.6063                 3.6273
 Frc consts  --     0.0000                 0.0000                 0.0000
 IR Inten    --     3.7640                 0.2821                 0.4160
 Raman Activ --     0.0000                 0.0000                 0.0000
 Depolar     --     0.0000                 0.0000                 0.0000
 Atom AN      X      Y      Z        X      Y      Z        X      Y      Z
   1   8     0.29   0.01   0.00     0.01   0.00  -0.02     0.00  -0.00  -0.01
   2   7    -0.33   0.00  -0.00    -0.01   0.00   0.01    -0.00   0.00   0.00
   3   6    -0.01   0.01  -0.00    -0.00   0.00   0.04     0.00   0.00   0.02
   4   6    -0.05   0.38  -0.01    -0.00   0.01   0.23    -0.00   0.00  -0.17
   5   6    -0.06  -0.39  -0.00    -0.00  -0.01   0.08     0.00  -0.00   0.25
   6   6    -0.09  -0.00   0.00    -0.00  -0.00  -0.00     0.00  -0.00   0.01
   7   6     0.12   0.42   0.01     0.00   0.01  -0.26     0.00   0.00   0.20
   8   6     0.12  -0.43   0.00     0.00  -0.01  -0.13    -0.00  -0.00  -0.33
   9   1    -0.08   0.08   0.01    -0.00   0.00  -0.54    -0.00  -0.00   0.25
  10   1    -0.08  -0.08   0.01    -0.00  -0.00  -0.27    -0.00  -0.00  -0.46
  11   1     0.11   0.08  -0.02     0.00   0.00   0.59    -0.00  -0.00  -0.32
  12   1     0.13  -0.07  -0.01     0.00  -0.00   0.37     0.00  -0.00   0.62
  13   1    -0.11  -0.01   0.00    -0.00  -0.00   0.00    -0.00  -0.00  -0.01
  14   1    -0.10   0.01   0.00    -0.00   0.00  -0.00     0.00  -0.00   0.01
  15   1     0.08  -0.00   0.00     0.00  -0.00  -0.01     0.00  -0.00   0.01
                     19                     20                     21
                        a                      a                      a 
 Frequencies --   972.0315              1013.0255              1125.2613
 Red. masses --     4.3762                 8.1810                 3.3440
 Frc consts  --     0.0000                 0.0000                 0.0000
 IR Inten    --     8.4781                 5.8167                28.2063
 Raman Activ --     0.0000                 0.0000                 0.0000
 Depolar     --     0.0000                 0.0000                 0.0000
 Atom AN      X      Y      Z        X      Y      Z        X      Y      Z
   1   8    -0.01  -0.00   0.00    -0.13  -0.00   0.00     0.05  -0.10  -0.00
   2   7     0.00   0.43  -0.00    -0.12  -0.01   0.00    -0.02   0.07   0.00
   3   6    -0.00   0.09   0.00     0.05   0.00  -0.00     0.01  -0.15  -0.00
   4   6    -0.02  -0.16   0.00    -0.02   0.40  -0.00    -0.11   0.14   0.00
   5   6     0.01  -0.17  -0.00    -0.03  -0.39  -0.00     0.13   0.07  -0.00
   6   6     0.00   0.05   0.00     0.11  -0.00  -0.00     0.04  -0.21   0.00
   7   6    -0.10  -0.07   0.00    -0.01  -0.38   0.00     0.09   0.17  -0.00
   8   6     0.09  -0.04  -0.00    -0.02   0.37   0.00    -0.07   0.16   0.00
   9   1    -0.05  -0.07  -0.00     0.20   0.23   0.00    -0.37  -0.15  -0.00
  10   1     0.05  -0.08   0.00     0.19  -0.22   0.00     0.44  -0.21   0.00
  11   1    -0.10   0.02  -0.00     0.19  -0.21  -0.00     0.24  -0.07  -0.00
  12   1     0.11   0.04   0.00     0.21   0.23  -0.00    -0.38  -0.17   0.00
  13   1    -0.54  -0.22   0.00    -0.03  -0.00  -0.00    -0.07  -0.02   0.00
  14   1     0.55  -0.22  -0.00    -0.06   0.01   0.00     0.06  -0.02  -0.00
  15   1     0.04  -0.02  -0.00    -0.04   0.00  -0.00    -0.37   0.13   0.00
                     22                     23                     24
                        a                      a                      a 
 Frequencies --  1150.7917              1186.0347              1239.9201
 Red. masses --     2.8125                 1.7312                 7.5705
 Frc consts  --     0.0000                 0.0000                 0.0000
 IR Inten    --   154.6139                 0.5686               239.3174
 Raman Activ --     0.0000                 0.0000                 0.0000
 Depolar     --     0.0000                 0.0000                 0.0000
 Atom AN      X      Y      Z        X      Y      Z        X      Y      Z
   1   8    -0.20   0.21   0.00     0.06   0.02  -0.00    -0.31  -0.03   0.00
   2   7    -0.01   0.01  -0.00    -0.01   0.00  -0.00    -0.15   0.01   0.00
   3   6     0.02  -0.03  -0.00     0.01  -0.01  -0.00     0.23  -0.01  -0.00
   4   6    -0.05   0.01   0.00    -0.09  -0.08   0.00    -0.04   0.14   0.00
   5   6     0.04  -0.04  -0.00    -0.06   0.13   0.00    -0.02  -0.18   0.00
   6   6     0.05   0.16  -0.00    -0.07  -0.04  -0.00     0.54   0.04  -0.00
   7   6     0.05  -0.07  -0.00     0.09  -0.07  -0.00     0.09  -0.08  -0.00
   8   6    -0.05  -0.07   0.00     0.02   0.08  -0.00     0.14   0.10  -0.00
   9   1    -0.07  -0.03   0.00    -0.48  -0.28   0.00    -0.26  -0.11   0.00
  10   1     0.11  -0.07   0.00    -0.28   0.19   0.00    -0.41   0.18   0.00
  11   1     0.28  -0.17  -0.00     0.48  -0.27  -0.00    -0.21   0.12   0.00
  12   1    -0.38  -0.24   0.00     0.38   0.25  -0.00    -0.21  -0.13   0.00
  13   1    -0.02  -0.00   0.00    -0.02  -0.01   0.00    -0.11  -0.04   0.00
  14   1     0.01  -0.00   0.00    -0.01   0.01  -0.00    -0.10   0.03  -0.00
  15   1     0.70  -0.24  -0.00     0.05  -0.01  -0.00    -0.13   0.02  -0.00
                     25                     26                     27
                        a                      a                      a 
 Frequencies --  1286.6388              1336.3063              1348.8520
 Red. masses --     3.8013                10.1814                11.2847
 Frc consts  --     0.0000                 0.0000                 0.0000
 IR Inten    --    44.5701                 8.1012                30.5356
 Raman Activ --     0.0000                 0.0000                 0.0000
 Depolar     --     0.0000                 0.0000                 0.0000
 Atom AN      X      Y      Z        X      Y      Z        X      Y      Z
   1   8    -0.10   0.09   0.00    -0.17  -0.03   0.00     0.14  -0.05  -0.00
   2   7    -0.01  -0.08  -0.00     0.25  -0.01  -0.00    -0.09  -0.03   0.00
   3   6     0.02   0.30  -0.00    -0.48   0.14   0.00     0.18   0.39  -0.00
   4   6     0.08   0.08   0.00    -0.38  -0.08   0.00    -0.21  -0.20   0.00
   5   6    -0.10   0.04  -0.00    -0.11  -0.08   0.00     0.42  -0.19  -0.00
   6   6     0.09  -0.15  -0.00     0.37   0.16  -0.00    -0.17   0.39   0.00
   7   6     0.16  -0.12  -0.00     0.29   0.07  -0.00     0.22  -0.21  -0.00
   8   6    -0.15  -0.13   0.00     0.05  -0.20  -0.00    -0.35  -0.10   0.00
   9   1    -0.39  -0.21   0.00     0.06   0.09  -0.00    -0.01  -0.04   0.00
  10   1     0.38  -0.22  -0.00     0.04  -0.07  -0.00    -0.03   0.03   0.00
  11   1    -0.40   0.21   0.00     0.14  -0.00  -0.00     0.01  -0.04  -0.00
  12   1     0.27   0.15  -0.00     0.09  -0.02  -0.00    -0.09  -0.02   0.00
  13   1     0.08   0.03  -0.00     0.25   0.10   0.00    -0.05  -0.02  -0.00
  14   1    -0.09   0.04   0.00     0.22  -0.08   0.00    -0.14   0.06   0.00
  15   1     0.21  -0.07  -0.00    -0.13   0.03   0.00    -0.17   0.07   0.00
                     28                     29                     30
                        a                      a                      a 
 Frequencies --  1441.2584              1468.0068              1518.9364
 Red. masses --     9.9332                 4.1201                 9.9146
 Frc consts  --     0.0000                 0.0000                 0.0000
 IR Inten    --    32.1479                 0.6893               470.3596
 Raman Activ --     0.0000                 0.0000                 0.0000
 Depolar     --     0.0000                 0.0000                 0.0000
 Atom AN      X      Y      Z        X      Y      Z        X      Y      Z
   1   8     0.05  -0.09  -0.00    -0.06  -0.01   0.00     0.08   0.01  -0.00
   2   7    -0.00  -0.10  -0.00     0.30  -0.00   0.00     0.34   0.00   0.00
   3   6    -0.03   0.39  -0.00     0.08   0.01   0.00    -0.50   0.00   0.00
   4   6     0.35  -0.10  -0.00    -0.14  -0.13  -0.00     0.07   0.17  -0.00
   5   6    -0.32  -0.12   0.00    -0.18   0.13   0.00     0.08  -0.17  -0.00
   6   6    -0.02   0.33   0.00     0.21   0.03  -0.00    -0.37  -0.03   0.00
   7   6    -0.35  -0.08   0.00    -0.06   0.12  -0.00     0.27  -0.19  -0.00
   8   6     0.36  -0.06  -0.00    -0.01  -0.14  -0.00     0.26   0.21  -0.00
   9   1    -0.12  -0.16   0.00     0.14   0.06   0.00    -0.15  -0.04   0.00
  10   1     0.09  -0.14  -0.00     0.15  -0.07   0.00    -0.15   0.04   0.00
  11   1     0.13  -0.15  -0.00     0.13  -0.04  -0.00    -0.17   0.08   0.00
  12   1    -0.12  -0.15  -0.00     0.10   0.02  -0.00    -0.15  -0.07   0.00
  13   1     0.11   0.05  -0.00    -0.48  -0.31  -0.00    -0.17  -0.14  -0.00
  14   1    -0.06   0.01   0.00    -0.49   0.31  -0.00    -0.17   0.14  -0.00
  15   1    -0.17   0.05   0.00    -0.03   0.01  -0.00     0.04  -0.01   0.00
                     31                     32                     33
                        a                      a                      a 
 Frequencies --  1584.6657              1637.6513              3050.3820
 Red. masses --    11.5346                11.6158                 1.7988
 Frc consts  --     0.0000                 0.0000                 0.0000
 IR Inten    --     8.7852                29.3183                40.1996
 Raman Activ --     0.0000                 0.0000                 0.0000
 Depolar     --     0.0000                 0.0000                 0.0000
 Atom AN      X      Y      Z        X      Y      Z        X      Y      Z
   1   8    -0.03   0.05   0.00     0.06  -0.00  -0.00     0.00   0.00  -0.00
   2   7    -0.00  -0.05  -0.00    -0.14  -0.00  -0.00     0.00  -0.00   0.00
   3   6     0.01   0.50  -0.00     0.38   0.01  -0.00    -0.00   0.00   0.00
   4   6    -0.15  -0.29   0.00    -0.41  -0.13   0.00    -0.03   0.06   0.00
   5   6     0.14  -0.27  -0.00    -0.42   0.13   0.00     0.00   0.00  -0.00
   6   6     0.01  -0.55  -0.00    -0.27   0.01   0.00    -0.01  -0.00   0.00
   7   6    -0.13   0.30   0.00     0.39  -0.12  -0.00    -0.13  -0.23   0.00
   8   6     0.12   0.29  -0.00     0.40   0.12  -0.00     0.01  -0.00  -0.00
   9   1     0.09   0.00   0.00     0.07   0.06  -0.00     0.13  -0.23  -0.00
  10   1    -0.07  -0.00  -0.00     0.08  -0.07  -0.00    -0.00  -0.00   0.00
  11   1     0.08   0.01  -0.00    -0.07   0.06   0.00     0.45   0.81  -0.00
  12   1    -0.06   0.02  -0.00    -0.06  -0.07   0.00    -0.01   0.02   0.00
  13   1     0.05   0.02  -0.00     0.03   0.04   0.00     0.00   0.00  -0.00
  14   1    -0.05   0.02   0.00     0.03  -0.03   0.00     0.00   0.00   0.00
  15   1     0.12  -0.04  -0.00     0.01   0.00  -0.00     0.01   0.00   0.00
                     34                     35                     36
                        a                      a                      a 
 Frequencies --  3073.8426              3076.8954              3108.8080
 Red. masses --     1.8282                 1.8311                 1.8525
 Frc consts  --     0.0000                 0.0000                 0.0000
 IR Inten    --    66.5935                22.5560                23.3978
 Raman Activ --     0.0000                 0.0000                 0.0000
 Depolar     --     0.0000                 0.0000                 0.0000
 Atom AN      X      Y      Z        X      Y      Z        X      Y      Z
   1   8    -0.00   0.00   0.00    -0.00   0.00  -0.00     0.00  -0.00  -0.00
   2   7    -0.00  -0.00  -0.00     0.00   0.00  -0.00    -0.00   0.00   0.00
   3   6     0.00   0.00  -0.00    -0.02  -0.00   0.00     0.00  -0.00  -0.00
   4   6    -0.09   0.15   0.00    -0.10   0.17   0.00     0.00  -0.00  -0.00
   5   6     0.10   0.17  -0.00    -0.08  -0.15   0.00     0.03   0.05  -0.00
   6   6     0.00  -0.01  -0.00     0.00  -0.00  -0.00    -0.01   0.00   0.00
   7   6     0.03   0.05  -0.00     0.03   0.05  -0.00    -0.00  -0.01   0.00
   8   6     0.01  -0.02  -0.00    -0.02   0.03   0.00    -0.14   0.23   0.00
   9   1     0.30  -0.53  -0.00     0.35  -0.61  -0.00    -0.01   0.01   0.00
  10   1    -0.35  -0.62   0.00     0.30   0.54  -0.00    -0.08  -0.14   0.00
  11   1    -0.09  -0.16   0.00    -0.09  -0.17   0.00     0.01   0.02  -0.00
  12   1    -0.06   0.10   0.00     0.07  -0.11  -0.00     0.48  -0.81  -0.00
  13   1     0.00   0.00   0.00     0.00   0.00   0.00    -0.00   0.00   0.00
  14   1    -0.00   0.00  -0.00     0.00  -0.00   0.00    -0.00   0.00  -0.00
  15   1    -0.00  -0.00   0.00    -0.00  -0.00   0.00     0.00   0.00   0.00
                     37                     38                     39
                        a                      a                      a 
 Frequencies --  3526.9998              3533.5814              3592.0704
 Red. masses --     1.4221                 1.8625                 2.1963
 Frc consts  --     0.0000                 0.0000                 0.0000
 IR Inten    --    19.5339                16.5081                 1.8131
 Raman Activ --     0.0000                 0.0000                 0.0000
 Depolar     --     0.0000                 0.0000                 0.0000
 Atom AN      X      Y      Z        X      Y      Z        X      Y      Z
   1   8     0.01   0.02   0.00     0.08   0.22   0.00    -0.00  -0.00  -0.00
   2   7     0.18  -0.00   0.00    -0.01  -0.00  -0.00     0.00  -0.30  -0.00
   3   6     0.00  -0.00   0.00     0.00  -0.00  -0.00    -0.00  -0.01  -0.00
   4   6    -0.00  -0.00   0.00     0.00   0.00  -0.00    -0.00   0.00  -0.00
   5   6    -0.00   0.00   0.00    -0.00   0.00  -0.00     0.00   0.00   0.00
   6   6     0.00   0.00  -0.00     0.01   0.01  -0.00    -0.00   0.00  -0.00
   7   6     0.00   0.00  -0.00    -0.00  -0.00   0.00     0.00  -0.00   0.00
   8   6     0.00  -0.00  -0.00     0.00   0.00   0.00    -0.00  -0.00  -0.00
   9   1     0.00  -0.00   0.00    -0.00   0.00  -0.00     0.00   0.00   0.00
  10   1     0.00   0.00   0.00     0.00   0.00  -0.00    -0.00   0.00  -0.00
  11   1     0.00  -0.00  -0.00     0.00   0.00  -0.00    -0.00  -0.00   0.00
  12   1     0.00  -0.00  -0.00     0.00  -0.01  -0.00     0.00  -0.00  -0.00
  13   1    -0.34   0.61  -0.00     0.03  -0.05   0.00    -0.35   0.57  -0.00
  14   1    -0.33  -0.61  -0.00     0.03   0.05   0.00     0.35   0.58   0.00
  15   1    -0.03  -0.07  -0.00    -0.35  -0.90  -0.00     0.00   0.00   0.00
