      -----------------------------------------------------------      
     |                   =====================                   |     
     |                           x T B                           |     
     |                   =====================                   |     
     |                         S. Grimme                         |     
     |          Mulliken Center for Theoretical Chemistry        |     
     |                    University of Bonn                     |     
      -----------------------------------------------------------      

   * xtb version 6.7.1 (edcfbbe) compiled by 'conda@c0858423619e' on 2025-09-04

   xtb is free software: you can redistribute it and/or modify it under
   the terms of the GNU Lesser General Public License as published by
   the Free Software Foundation, either version 3 of the License, or
   (at your option) any later version.
   
   xtb is distributed in the hope that it will be useful,
   but WITHOUT ANY WARRANTY; without even the implied warranty of
   MERCHANTABILITY or FITNESS FOR A PARTICULAR PURPOSE.  See the
   GNU Lesser General Public License for more details.
   
   Cite this work as:
   * C. Bannwarth, E. Caldeweyher, S. Ehlert, A. Hansen, P. Pracht,
     J. Seibert, S. Spicher, S. Grimme, WIREs Comput. Mol. Sci., 2020, 11,
     e01493. DOI: 10.1002/wcms.1493
   
   for GFN2-xTB:
   * C. Bannwarth, S. Ehlert and S. Grimme., J. Chem. Theory Comput., 2019,
     15, 1652-1671. DOI: 10.1021/acs.jctc.8b01176
   for GFN1-xTB:
   * S. Grimme, C. Bannwarth, P. Shushkov, J. Chem. Theory Comput., 2017,
     13, 1989-2009. DOI: 10.1021/acs.jctc.7b00118
   for GFN0-xTB:
   * P. Pracht, E. Caldeweyher, S. Ehlert, S. Grimme, ChemRxiv, 2019, preprint.
     DOI: 10.26434/chemrxiv.8326202.v1
   for GFN-FF:
   * S. Spicher and S. Grimme, Angew. Chem. Int. Ed., 2020, 59, 15665-15673.
     DOI: 10.1002/anie.202004239
   
   for ALPB and GBSA implicit solvation:
   * S. Ehlert, M. Stahn, S. Spicher, S. Grimme, J. Chem. Theory Comput.,
     2021, 17, 4250-4261. DOI: 10.1021/acs.jctc.1c00471
   
   for ddCOSMO and CPCM-X implicit solvation:
   * M. Stahn, S. Ehlert, S. Grimme, J. Phys. Chem. A,
     2023, XX, XXXX-XXXX. DOI: 10.1021/acs.jpca.3c04382
   
   for DFT-D4:
   * E. Caldeweyher, C. Bannwarth and S. Grimme, J. Chem. Phys., 2017,
     147, 034112. DOI: 10.1063/1.4993215
   * E. Caldeweyher, S. Ehlert, A. Hansen, H. Neugebauer, S. Spicher,
     C. Bannwarth and S. Grimme, J. Chem. Phys., 2019, 150, 154122.
     DOI: 10.1063/1.5090222
   * E. Caldeweyher, J.-M. Mewes, S. Ehlert and S. Grimme, Phys. Chem. Chem. Phys.
     2020, 22, 8499-8512. DOI: 10.1039/D0CP00502A
   
   for sTDA-xTB:
   * S. Grimme and C. Bannwarth, J. Chem. Phys., 2016, 145, 054103.
     DOI: 10.1063/1.4959605
   
   in the mass-spec context:
   * V. Asgeirsson, C. Bauer and S. Grimme, Chem. Sci., 2017, 8, 4879.
     DOI: 10.1039/c7sc00601b
   * J. Koopman and S. Grimme, ACS Omega 2019, 4, 12, 15120-15133.
     DOI: 10.1021/acsomega.9b02011
   
   for metadynamics refer to:
   * S. Grimme, J. Chem. Theory Comput., 2019, 155, 2847-2862
     DOI: 10.1021/acs.jctc.9b00143
   
   for SPH calculations refer to:
   * S. Spicher and S. Grimme, J. Chem. Theory Comput., 2021, 17, 1701-1714
     DOI: 10.1021/acs.jctc.0c01306
   
   for ONIOM refer to:
   * C. Plett, A. Katbashev, S. Ehlert, S. Grimme, M. Bursch,
     Phys. Chem. Chem. Phys., 2023, 25, 17860-17868. DOI: 10.1039/D3CP02178E
   
   for DIPRO refer to:
   * J. Kohn, N. Gildemeister, S. Grimme, D. Fazzi, A. Hansen,
     J. Chem. Phys., 2023, just accepted.
   
   for PTB refer to:
   * S. Grimme, M. Mueller, A. Hansen, J. Chem. Phys., 2023, 158, 124111.
     DOI: 10.1063/5.0137838
   
   with help from (in alphabetical order)
   P. Atkinson, C. Bannwarth, F. Bohle, G. Brandenburg, E. Caldeweyher
   M. Checinski, S. Dohm, S. Ehlert, S. Ehrlich, I. Gerasimov, C. Hölzer
   A. Katbashev, J. Kohn, J. Koopman, C. Lavigne, S. Lehtola, F. März, M. Müller,
   F. Musil, H. Neugebauer, J. Pisarek, C. Plett, P. Pracht, F. Pultar,
   J. Seibert, P. Shushkov, S. Spicher, M. Stahn, M. Steiner, T. Strunk,
   J. Stückrath, T. Rose, and J. Unsleber
   
 * started run on 2026/06/07 at 14:02:11.136     
   ID    Z sym.   atoms
    1    8 O      1
    2    7 N      2
    3    6 C      3-8
    4    1 H      9-15

           -------------------------------------------------
          |                Calculation Setup                |
           -------------------------------------------------

          program call               : xtb xtbopt.xyz --hess
          hostname                   : fedora
          coordinate file            : xtbopt.xyz
          omp threads                :                    16


           -------------------------------------------------
          |                 G F N 2 - x T B                 |
           -------------------------------------------------

        Reference                      10.1021/acs.jctc.8b01176
      * Hamiltonian:
        H0-scaling (s, p, d)           1.850000    2.230000    2.230000
        zeta-weighting                 0.500000
      * Dispersion:
        s8                             2.700000
        a1                             0.520000
        a2                             5.000000
        s9                             5.000000
      * Repulsion:
        kExp                           1.500000    1.000000
        rExp                           1.000000
      * Coulomb:
        alpha                          2.000000
        third order                    shell-resolved
        anisotropic                    true
        a3                             3.000000
        a5                             4.000000
        cn-shift                       1.200000
        cn-exp                         4.000000
        max-rad                        5.000000


          ...................................................
          :                      SETUP                      :
          :.................................................:
          :  # basis functions                  39          :
          :  # atomic orbitals                  39          :
          :  # shells                           23          :
          :  # electrons                        42          :
          :  max. iterations                   250          :
          :  Hamiltonian                  GFN2-xTB          :
          :  restarted?                      false          :
          :  GBSA solvation                  false          :
          :  PC potential                    false          :
          :  electronic temp.          300.0000000     K    :
          :  accuracy                    1.0000000          :
          :  -> integral cutoff          0.2500000E+02      :
          :  -> integral neglect         0.1000000E-07      :
          :  -> SCF convergence          0.1000000E-05 Eh   :
          :  -> wf. convergence          0.1000000E-03 e    :
          :  Broyden damping             0.4000000          :
          :  net charge                          0          :
          :  unpaired electrons                  0          :
          ...................................................

 iter      E             dE          RMSdq      gap      omega  full diag
   1    -23.7214026 -0.237214E+02  0.432E+00    2.68       0.0  T
   2    -23.7489689 -0.275663E-01  0.270E+00    3.60       1.0  T
   3    -23.7488447  0.124167E-03  0.943E-01    3.38       1.0  T
   4    -23.7506371 -0.179237E-02  0.284E-01    3.54       1.0  T
   5    -23.7512943 -0.657254E-03  0.943E-02    3.53       1.0  T
   6    -23.7513166 -0.222562E-04  0.409E-02    3.52       1.0  T
   7    -23.7513210 -0.445345E-05  0.187E-02    3.52       1.4  T
   8    -23.7513223 -0.126015E-05  0.484E-03    3.52       5.3  T
   9    -23.7513223 -0.211409E-07  0.161E-03    3.52      16.0  T
  10    -23.7513223 -0.107377E-07  0.724E-04    3.52      35.7  T
  11    -23.7513223 -0.215656E-08  0.186E-04    3.52     138.5  T

   *** convergence criteria satisfied after 11 iterations ***

         #    Occupation            Energy/Eh            Energy/eV
      -------------------------------------------------------------
         1        2.0000           -0.6937952             -18.8791
       ...           ...                  ...                  ...
        15        2.0000           -0.4697905             -12.7837
        16        2.0000           -0.4594221             -12.5015
        17        2.0000           -0.4447278             -12.1017
        18        2.0000           -0.4126866             -11.2298
        19        2.0000           -0.4118316             -11.2065
        20        2.0000           -0.3931304             -10.6976
        21        2.0000           -0.3406664              -9.2700 (HOMO)
        22                         -0.2112615              -5.7487 (LUMO)
        23                         -0.1863869              -5.0718
        24                         -0.0704839              -1.9180
        25                          0.0198231               0.5394
        26                          0.0841154               2.2889
       ...                                ...                  ...
        39                          0.6801720              18.5084
      -------------------------------------------------------------
                  HL-Gap            0.1294049 Eh            3.5213 eV
             Fermi-level           -0.2759639 Eh           -7.5094 eV

 SCC (total)                   0 d,  0 h,  0 min,  0.036 sec
 SCC setup                      ...        0 min,  0.002 sec (  4.868%)
 Dispersion                     ...        0 min,  0.004 sec ( 11.107%)
 classical contributions        ...        0 min,  0.003 sec (  7.982%)
 integral evaluation            ...        0 min,  0.005 sec ( 12.557%)
 iterations                     ...        0 min,  0.016 sec ( 43.804%)
 molecular gradient             ...        0 min,  0.007 sec ( 19.171%)
 printout                       ...        0 min,  0.000 sec (  0.434%)

         :::::::::::::::::::::::::::::::::::::::::::::::::::::
         ::                     SUMMARY                     ::
         :::::::::::::::::::::::::::::::::::::::::::::::::::::
         :: total energy             -23.387797194651 Eh    ::
         :: gradient norm              0.000322188214 Eh/a0 ::
         :: HOMO-LUMO gap              3.521285432676 eV    ::
         ::.................................................::
         :: SCC energy               -23.751312852306 Eh    ::
         :: -> isotropic ES            0.030552483429 Eh    ::
         :: -> anisotropic ES          0.005943427867 Eh    ::
         :: -> anisotropic XC          0.008688094151 Eh    ::
         :: -> dispersion             -0.011094059149 Eh    ::
         :: repulsion energy           0.363515657655 Eh    ::
         :: add. restraining           0.000000000000 Eh    ::
         :: total charge               0.000000000000 e     ::
         :::::::::::::::::::::::::::::::::::::::::::::::::::::

           ------------------------------------------------- 
          |                Numerical Hessian                |
           ------------------------------------------------- 
step length          :   0.00500
SCC accuracy         :   0.30000
Hessian scale factor :   1.00000
frozen atoms in %    :   0.00000    0
RMS gradient         :   0.00032
estimated CPU  time      0.42 min
estimated wall time      0.03 min

writing file <hessian>.

 projected vibrational frequencies (cm⁻¹)
eigval :       -0.00    -0.00    -0.00     0.00     0.00     0.00
eigval :     -448.06   141.97   317.90   356.41   369.81   395.43
eigval :      407.95   411.95   441.60   493.41   616.42   655.81
eigval :      761.02   792.69   851.25   882.43   882.81   904.45
eigval :      972.03  1013.03  1125.26  1150.79  1186.03  1239.92
eigval :     1286.64  1336.31  1348.85  1441.26  1468.01  1518.94
eigval :     1584.67  1637.65  3050.38  3073.84  3076.90  3108.81
eigval :     3527.00  3533.58  3592.07
           -------------------------------------------------
          |                Property Printout                |
           -------------------------------------------------

    * Orbital Energies and Occupations

         #    Occupation            Energy/Eh            Energy/eV
      -------------------------------------------------------------
         1        2.0000           -0.6937947             -18.8791
       ...           ...                  ...                  ...
         9        2.0000           -0.5327788             -14.4976
        10        2.0000           -0.5261793             -14.3181
        11        2.0000           -0.5098067             -13.8725
        12        2.0000           -0.5061946             -13.7743
        13        2.0000           -0.4783459             -13.0165
        14        2.0000           -0.4741427             -12.9021
        15        2.0000           -0.4697901             -12.7836
        16        2.0000           -0.4594217             -12.5015
        17        2.0000           -0.4447276             -12.1017
        18        2.0000           -0.4126861             -11.2298
        19        2.0000           -0.4118322             -11.2065
        20        2.0000           -0.3931297             -10.6976
        21        2.0000           -0.3406669              -9.2700 (HOMO)
        22                         -0.2112609              -5.7487 (LUMO)
        23                         -0.1863864              -5.0718
        24                         -0.0704832              -1.9179
        25                          0.0198225               0.5394
        26                          0.0841158               2.2889
        27                          0.1305510               3.5525
        28                          0.1609333               4.3792
        29                          0.1655041               4.5036
        30                          0.1939331               5.2772
        31                          0.2204502               5.9988
        32                          0.2397197               6.5231
       ...                                ...                  ...
        39                          0.6801726              18.5084
      -------------------------------------------------------------
                  HL-Gap            0.1294060 Eh            3.5213 eV
             Fermi-level           -0.2759639 Eh           -7.5094 eV

     #   Z          covCN         q      C6AA      α(0)
     1   8 O        1.659    -0.406    20.968     6.182
     2   7 N        2.642    -0.270    26.992     7.716
     3   6 C        2.898     0.073    26.367     8.419
     4   6 C        2.925    -0.065    29.622     8.925
     5   6 C        2.925    -0.064    29.589     8.921
     6   6 C        2.846     0.128    25.199     8.227
     7   6 C        2.918    -0.070    29.735     8.942
     8   6 C        2.918    -0.053    29.326     8.880
     9   1 H        0.926     0.024     2.674     2.557
    10   1 H        0.926     0.027     2.624     2.533
    11   1 H        0.925     0.021     2.714     2.576
    12   1 H        0.926     0.045     2.377     2.411
    13   1 H        0.861     0.158     1.345     1.817
    14   1 H        0.861     0.159     1.341     1.814
    15   1 H        0.805     0.292     0.745     1.355

 Mol. C6AA /au·bohr⁶  :       2623.300235
 Mol. C8AA /au·bohr⁸  :      62317.637170
 Mol. α(0) /au        :         81.276489


Wiberg/Mayer (AO) data.
largest (>0.10) Wiberg bond orders for each atom

 ---------------------------------------------------------------------------
     #   Z sym  total        # sym  WBO       # sym  WBO       # sym  WBO
 ---------------------------------------------------------------------------
     1   8 O    2.086 --     6 C    1.048    15 H    0.894
     2   7 N    3.269 --     3 C    1.165    13 H    0.958    14 H    0.958
     3   6 C    3.971 --     4 C    1.346     5 C    1.335     2 N    1.165
     4   6 C    3.986 --     7 C    1.451     3 C    1.346     9 H    0.969
                             8 C    0.105
     5   6 C    3.987 --     8 C    1.470     3 C    1.335    10 H    0.969
                             7 C    0.103
     6   6 C    3.935 --     7 C    1.377     8 C    1.361     1 O    1.048
     7   6 C    3.988 --     4 C    1.451     6 C    1.377    11 H    0.967
Molecule has the following symmetry elements: (sigma) 
It seems to be the Cs point group
                             5 C    0.103
     8   6 C    3.990 --     5 C    1.470     6 C    1.361    12 H    0.969
                             4 C    0.105
     9   1 H    0.999 --     4 C    0.969
    10   1 H    0.999 --     5 C    0.969
    11   1 H    0.999 --     7 C    0.967
    12   1 H    0.997 --     8 C    0.969
    13   1 H    0.974 --     2 N    0.958
    14   1 H    0.974 --     2 N    0.958
    15   1 H    0.915 --     1 O    0.894
 ---------------------------------------------------------------------------

Topologies differ in total number of bonds
Writing topology from bond orders to xtbtopo.mol

molecular dipole:
                 x           y           z       tot (Debye)
 q only:        0.771      -0.352       0.003
   full:        0.892      -0.582       0.006       2.708
molecular quadrupole (traceless):
                xx          xy          yy          xz          yz          zz
 q only:        4.261       4.078      -0.435       0.023      -0.000      -3.826
  q+dip:        5.391       5.848       2.557       0.057      -0.001      -7.948
   full:        5.001       5.953       1.151       0.058      -0.001      -6.152

           -------------------------------------------------
          |               Frequency Printout                |
           -------------------------------------------------
 projected vibrational frequencies (cm⁻¹)
eigval :       -0.00    -0.00    -0.00     0.00     0.00     0.00
eigval :     -448.06   141.97   317.90   356.41   369.81   395.43
eigval :      407.95   411.95   441.60   493.41   616.42   655.81
eigval :      761.02   792.69   851.25   882.43   882.81   904.45
eigval :      972.03  1013.03  1125.26  1150.79  1186.03  1239.92
eigval :     1286.64  1336.31  1348.85  1441.26  1468.01  1518.94
eigval :     1584.67  1637.65  3050.38  3073.84  3076.90  3108.81
eigval :     3527.00  3533.58  3592.07
 reduced masses (amu)
   1: 12.01   2: 11.35   3: 12.07   4: 11.89   5: 11.26   6: 12.33   7:  4.08   8: 12.03
   9: 10.95  10: 10.39  11:  7.00  12:  3.39  13:  9.97  14:  3.03  15: 12.74  16:  8.64
  17: 11.28  18: 11.45  19: 12.13  20:  5.10  21:  3.33  22: 11.53  23:  2.61  24:  3.63
  25:  4.38  26:  8.18  27:  3.34  28:  2.81  29:  1.73  30:  7.57  31:  3.80  32: 10.18
  33: 11.28  34:  9.93  35:  4.12  36:  9.91  37: 11.53  38: 11.62  39:  1.80  40:  1.83
  41:  1.83  42:  1.85  43:  1.42  44:  1.86  45:  2.20
 IR intensities (km·mol⁻¹)
   1:  0.02   2:  1.06   3:  0.08   4:  0.42   5:  0.83   6:  0.03   7:272.29   8:  1.44
   9:  5.57  10:  0.01  11: 39.47  12:131.39  13:  7.72  14:  1.48  15:  0.40  16:  0.38
  17:  1.18  18:  0.28  19: 41.54  20: 46.89  21:  0.57  22:  3.76  23:  0.28  24:  0.42
  25:  8.48  26:  5.82  27: 28.21  28:154.61  29:  0.57  30:239.32  31: 44.57  32:  8.10
  33: 30.54  34: 32.15  35:  0.69  36:470.36  37:  8.79  38: 29.32  39: 40.20  40: 66.59
  41: 22.56  42: 23.40  43: 19.53  44: 16.51  45:  1.81
 Raman intensities (Ä⁴*amu⁻¹)
   1:  0.00   2:  0.00   3:  0.00   4:  0.00   5:  0.00   6:  0.00   7:  0.00   8:  0.00
   9:  0.00  10:  0.00  11:  0.00  12:  0.00  13:  0.00  14:  0.00  15:  0.00  16:  0.00
  17:  0.00  18:  0.00  19:  0.00  20:  0.00  21:  0.00  22:  0.00  23:  0.00  24:  0.00
  25:  0.00  26:  0.00  27:  0.00  28:  0.00  29:  0.00  30:  0.00  31:  0.00  32:  0.00
  33:  0.00  34:  0.00  35:  0.00  36:  0.00  37:  0.00  38:  0.00  39:  0.00  40:  0.00
  41:  0.00  42:  0.00  43:  0.00  44:  0.00  45:  0.00
 output can be read by thermo (or use thermo option).
 writing <g98.out> molden fake output.
 recommended (thermochemical) frequency scaling factor: 1.0
           -------------------------------------------------
          |             Thermodynamic Functions             |
           -------------------------------------------------

cs  symmetry found (for desy threshold:  0.10E+00) used in thermo

          ...................................................
          :                      SETUP                      :
          :.................................................:
          :  # frequencies                          38      :
          :  # imaginary freq.                       1      :
          :  linear?                             false      :
          :  only rotor calc.                    false      :
          :  symmetry                               cs      :
          :  rotational number                       1      :
          :  scaling factor                  1.0000000      :
          :  rotor cutoff                   50.0000000 cm⁻¹ :
          :  imag. cutoff                  -20.0000000 cm⁻¹ :
          :.................................................:

    mode    ω/cm⁻¹     T·S(HO)/kcal·mol⁻¹    T·S(FR)/kcal·mol⁻¹   T·S(vib)
   ------------------------------------------------------------------------
       1    141.97    -0.82799 ( 98.49%)    -0.74726 (  1.51%)    -0.82676
   ------------------------------------------------------------------------

   temp. (K)  partition function   enthalpy   heat capacity  entropy
                                   cal/mol     cal/K/mol   cal/K/mol   J/K/mol
 298.15  VIB   9.46                 2544.425     21.484     12.997
         ROT  0.274E+06              888.752      2.981     27.867
         INT  0.260E+07             3433.177     24.465     40.864
         TR   0.110E+28             1481.254      4.968     39.960
         TOT                        4914.4314    29.4328    80.8240   338.1674

       T/K    H(0)-H(T)+PV         H(T)/Eh          T*S/Eh         G(T)/Eh
   ------------------------------------------------------------------------
    298.15    0.783164E-02    0.123916E+00    0.384021E-01    0.855142E-01
   ------------------------------------------------------------------------

         :::::::::::::::::::::::::::::::::::::::::::::::::::::
         ::                  THERMODYNAMIC                  ::
         :::::::::::::::::::::::::::::::::::::::::::::::::::::
         :: total free energy         -23.302282949310 Eh   ::
         ::.................................................::
         :: total energy              -23.387797194844 Eh   ::
         :: zero point energy           0.116084671298 Eh   ::
         :: G(RRHO) w/o ZPVE           -0.030570425764 Eh   ::
         :: G(RRHO) contrib.            0.085514245534 Eh   ::
         :::::::::::::::::::::::::::::::::::::::::::::::::::::
imag cut-off (cm-1) :    5.00
 found            1  significant imaginary frequency
 writing imag mode distorted coords to xtbhess.xyz
 for further optimization.

           -------------------------------------------------
          | TOTAL ENERGY              -23.387797194844 Eh   |
          | TOTAL ENTHALPY            -23.263880878646 Eh   |
          | TOTAL FREE ENERGY         -23.302282949310 Eh   |
          | GRADIENT NORM               0.000323522063 Eh/α |
          | HOMO-LUMO GAP               3.521316672190 eV   |
           -------------------------------------------------

------------------------------------------------------------------------
 * finished run on 2026/06/07 at 14:02:12.301     
------------------------------------------------------------------------
 total:
 * wall-time:     0 d,  0 h,  0 min,  1.165 sec
 *  cpu-time:     0 d,  0 h,  0 min, 17.483 sec
 * ratio c/w:    15.005 speedup
 SCF:
 * wall-time:     0 d,  0 h,  0 min,  0.036 sec
 *  cpu-time:     0 d,  0 h,  0 min,  0.550 sec
 * ratio c/w:    15.233 speedup
 analytical hessian:
 * wall-time:     0 d,  0 h,  0 min,  1.089 sec
 *  cpu-time:     0 d,  0 h,  0 min, 16.346 sec
 * ratio c/w:    15.009 speedup

