15
 xtb: 6.7.1 (edcfbbe)
O           -2.75957912687471        0.02537340650683       -0.00045924909816
N            2.77701413806949        0.00380658759415        0.12252380279392
C            1.40668646234378       -0.00310356666606       -0.02992494636191
C            0.69868106733062       -1.20411302269417       -0.00971539690559
C            0.68648223824081        1.19324226136123       -0.00947706768321
C           -1.38975526190638       -0.01344171757859        0.00284268600042
C           -0.68324676103354       -1.20792537004479        0.00304255178600
C           -0.69231517744437        1.18908541447748        0.00300704262887
H            1.23851349342977       -2.14018482075242       -0.00416659155224
H            1.22078078460149        2.13229396549292       -0.00392224429021
H           -1.21699015080465       -2.14992266382367        0.00198397929055
H           -1.24880425450121        2.11276631956286        0.00190764079274
H            3.28958666448922       -0.85722664947987       -0.16132663343620
H            3.27963514624338        0.87062859440799       -0.16066007832633
H           -3.10198449186569       -0.87570154688237        0.00213079280571
