29
energy: -23.983019683491 gnorm: 0.000838318560 xtb: 6.7.1 (edcfbbe)
O      4.3920013864    4.0859275108   -2.8169477440
O      3.3299643312    2.2574456538   -2.0061395234
O      3.0328231317    5.8280700581   -3.3986333971
C      4.4581284931    2.9724741439   -1.5977258235
C      3.9966785908    5.4150598526   -2.4605927467
C      5.5634099493    2.0205139127   -1.1648579661
C      5.6682700072    6.0546851485   -2.2316283378
H      5.2130050270    1.3901585597   -0.3204261829
H      6.4491037503    2.5940352574   -0.8194851158
H      5.8699761191    1.3568790939   -2.0015724307
H      6.3945641597    5.7093627091   -1.4665046984
H      5.3182838834    7.0666104409   -1.9367573096
H      6.1857220459    6.1260929156   -3.2120251407
H      2.6930724472    5.6019190572   -2.7023557781
O      4.3460065688    8.9748301679    2.6678828834
N      4.7907731655    5.1319126588   -1.2938296449
C      4.6928922325    6.0837825807   -0.3118154023
C      5.8259898921    6.5259517250    0.3693934464
C      3.4551840836    6.6322054652    0.0302666709
C      4.4891818116    8.0231518982    1.6924473893
C      5.7240998940    7.4843807143    1.3597358099
C      3.3537368090    7.5884681390    1.0183933655
H      6.7927016721    6.1132825456    0.1185637470
H      2.5106635519    6.2226570624   -0.4606952059
H      6.6542005401    7.7703672913    2.0146621090
H      2.4377772851    7.9663359566    1.4188856521
H      5.7210597327    4.6999254378   -1.4023554314
H      4.0129139255    4.7772629811   -1.6458374643
H      5.2502752167    9.1297191882    3.1800106616
