 Entering Gaussian System
 *********************************************
 Gaussian 98:
 frequency output generated by the xtb code
 *********************************************
                         Standard orientation:
 --------------------------------------------------------------------
  Center     Atomic     Atomic              Coordinates (Angstroms)
  Number     Number      Type              X           Y           Z
 --------------------------------------------------------------------
    1          8             0       -0.307616    1.266842   -0.000146
    2          8             0       -0.983515   -0.852493    0.000094
    3          6             0        1.377149   -0.368287    0.000151
    4          6             0       -0.082289   -0.039284    0.000789
    5          1             0        1.837201    0.068712   -0.882452
    6          1             0        1.840498    0.079041    0.875710
    7          1             0        1.515178   -1.443902    0.005767
    8          1             0       -1.258805    1.486451   -0.001227
 --------------------------------------------------------------------
     1 basis functions        1 primitive gaussians
     1 alpha electrons        1 beta electrons

 Harmonic frequencies (cm**-1), IR intensities (km*mol⁻¹),
 Raman scattering activities (A**4/amu), Raman depolarization ratios,
 reduced masses (AMU), force constants (mDyne/A) and normal coordinates:
                      1                      2                      3
                        a                      a                      a 
 Frequencies --    38.1188               406.3588               531.4500
 Red. masses --     2.1359                10.4628                 5.2788
 Frc consts  --     0.0000                 0.0000                 0.0000
 IR Inten    --     1.8567                 7.0321                49.4104
 Raman Activ --     0.0000                 0.0000                 0.0000
 Depolar     --     0.0000                 0.0000                 0.0000
 Atom AN      X      Y      Z        X      Y      Z        X      Y      Z
   1   8     0.00  -0.00  -0.19    -0.46   0.24  -0.00    -0.00  -0.00   0.02
   2   8    -0.00   0.00   0.19     0.41   0.05   0.00    -0.00   0.00   0.19
   3   6     0.00   0.00  -0.01    -0.02  -0.40   0.00     0.00  -0.00   0.04
   4   6    -0.00  -0.00  -0.02     0.14   0.29  -0.00     0.00  -0.00  -0.58
   5   1     0.13   0.47   0.30     0.11  -0.25  -0.01     0.27  -0.09   0.11
   6   1    -0.13  -0.47   0.31     0.11  -0.25   0.01    -0.27   0.09   0.11
   7   1    -0.00  -0.00  -0.51    -0.29  -0.16  -0.00    -0.00   0.00   0.19
   8   1     0.00  -0.00   0.00    -0.16  -0.11   0.00    -0.00   0.00   0.63
                      4                      5                      6
                        a                      a                      a 
 Frequencies --   565.1294               635.3618               904.0141
 Red. masses --    12.1875                 6.1981                10.1710
 Frc consts  --     0.0000                 0.0000                 0.0000
 IR Inten    --    80.2912               219.7567                13.6050
 Raman Activ --     0.0000                 0.0000                 0.0000
 Depolar     --     0.0000                 0.0000                 0.0000
 Atom AN      X      Y      Z        X      Y      Z        X      Y      Z
   1   8     0.31   0.28  -0.00     0.00  -0.00  -0.36     0.15  -0.35   0.00
   2   8     0.32  -0.53   0.00    -0.00   0.00  -0.23     0.27   0.27   0.00
   3   6    -0.40   0.06   0.00     0.00   0.00   0.08    -0.59   0.12   0.00
   4   6    -0.26   0.14  -0.00     0.00  -0.00   0.46     0.27   0.04  -0.00
   5   1    -0.09  -0.02  -0.00    -0.19   0.04  -0.06    -0.19   0.07   0.00
   6   1    -0.09  -0.02   0.00     0.19  -0.04  -0.06    -0.19   0.07  -0.00
   7   1    -0.19   0.01   0.00     0.00  -0.00  -0.08    -0.19   0.03  -0.00
   8   1     0.14   0.34   0.00    -0.00   0.00   0.71    -0.04  -0.39   0.00
                      7                      8                      9
                        a                      a                      a 
 Frequencies --   985.3989              1005.2537              1121.8531
 Red. masses --     6.3364                 5.8759                 6.7746
 Frc consts  --     0.0000                 0.0000                 0.0000
 IR Inten    --    75.4248                40.1742               245.8511
 Raman Activ --     0.0000                 0.0000                 0.0000
 Depolar     --     0.0000                 0.0000                 0.0000
 Atom AN      X      Y      Z        X      Y      Z        X      Y      Z
   1   8     0.04  -0.44  -0.00    -0.00  -0.00   0.07     0.23   0.42  -0.00
   2   8    -0.08   0.03  -0.00    -0.00  -0.00   0.10    -0.23  -0.25  -0.00
   3   6     0.13   0.41  -0.00     0.00   0.00   0.42     0.05   0.19  -0.00
   4   6    -0.10   0.12   0.00    -0.00   0.00  -0.49    -0.03  -0.13   0.00
   5   1     0.27  -0.23  -0.04    -0.49   0.08  -0.12     0.13  -0.09  -0.01
   6   1     0.27  -0.23   0.04     0.49  -0.08  -0.12     0.13  -0.09   0.01
   7   1    -0.55   0.02   0.00     0.00  -0.00  -0.22    -0.21   0.02  -0.00
   8   1     0.07   0.18  -0.00     0.00   0.00   0.03    -0.14  -0.70   0.00
                     10                     11                     12
                        a                      a                      a 
 Frequencies --  1243.9495              1361.3420              1423.7627
 Red. masses --    10.3106                 3.4827                 1.8046
 Frc consts  --     0.0000                 0.0000                 0.0000
 IR Inten    --   324.8691                77.1452                46.4870
 Raman Activ --     0.0000                 0.0000                 0.0000
 Depolar     --     0.0000                 0.0000                 0.0000
 Atom AN      X      Y      Z        X      Y      Z        X      Y      Z
   1   8    -0.18   0.30  -0.00     0.03  -0.01   0.00     0.01  -0.03  -0.00
   2   8    -0.06   0.05  -0.00    -0.02  -0.03   0.00    -0.05  -0.05  -0.00
   3   6    -0.11   0.15   0.00     0.46  -0.05  -0.00     0.07  -0.22   0.06
   4   6     0.48  -0.64   0.00    -0.06   0.09  -0.00     0.00   0.07   0.01
   5   1    -0.04  -0.00  -0.02    -0.48   0.09  -0.24     0.21   0.36   0.30
   6   1    -0.04  -0.00   0.02    -0.48   0.09   0.24     0.11   0.58  -0.35
   7   1    -0.30  -0.00  -0.00    -0.42  -0.07   0.00    -0.40  -0.08  -0.20
   8   1     0.03   0.32  -0.00    -0.01  -0.05   0.00     0.00  -0.01  -0.00
                     13                     14                     15
                        a                      a                      a 
 Frequencies --  1424.3690              1705.1519              3036.6672
 Red. masses --     1.5906                13.1874                 1.9489
 Frc consts  --     0.0000                 0.0000                 0.0000
 IR Inten    --    15.1825               770.7505                 0.4491
 Raman Activ --     0.0000                 0.0000                 0.0000
 Depolar     --     0.0000                 0.0000                 0.0000
 Atom AN      X      Y      Z        X      Y      Z        X      Y      Z
   1   8    -0.00   0.01  -0.01    -0.03  -0.06   0.00     0.00  -0.00  -0.00
   2   8     0.02   0.01  -0.00    -0.44  -0.38  -0.00     0.00   0.00  -0.00
   3   6    -0.02   0.07   0.21    -0.09  -0.00  -0.00    -0.01  -0.01   0.29
   4   6    -0.00  -0.02   0.04     0.63   0.49   0.00    -0.00  -0.00   0.01
   5   1     0.14  -0.52  -0.16    -0.04  -0.02  -0.03     0.31   0.30  -0.57
   6   1    -0.23   0.25   0.02    -0.04  -0.02   0.03    -0.28  -0.27  -0.50
   7   1     0.11   0.02  -0.71     0.07   0.01   0.00    -0.00  -0.01   0.04
   8   1    -0.00   0.00  -0.01     0.01   0.08  -0.00    -0.00   0.00  -0.00
                     16                     17                     18
                        a                      a                      a 
 Frequencies --  3043.7315              3078.9272              3350.7088
 Red. masses --     1.4004                 1.8321                 1.8498
 Frc consts  --     0.0000                 0.0000                 0.0000
 IR Inten    --     0.6149                 9.5381               192.7379
 Raman Activ --     0.0000                 0.0000                 0.0000
 Depolar     --     0.0000                 0.0000                 0.0000
 Atom AN      X      Y      Z        X      Y      Z        X      Y      Z
   1   8    -0.00   0.00  -0.00     0.00  -0.00   0.00    -0.23   0.05  -0.00
   2   8    -0.00  -0.00  -0.00    -0.00  -0.00  -0.00    -0.00  -0.00  -0.00
   3   6     0.15   0.11   0.02    -0.01   0.27  -0.00     0.00  -0.00  -0.00
   4   6     0.01   0.00   0.00     0.00   0.01  -0.00    -0.01   0.01  -0.00
   5   1    -0.26  -0.25   0.54    -0.04  -0.01   0.08     0.00   0.00  -0.01
   6   1    -0.29  -0.29  -0.60    -0.04  -0.01  -0.09     0.00   0.00   0.01
   7   1    -0.00   0.16   0.00     0.12  -0.94   0.01    -0.00  -0.00   0.00
   8   1     0.01  -0.00   0.00    -0.00   0.00   0.00     0.94  -0.23   0.00
