      -----------------------------------------------------------      
     |                   =====================                   |     
     |                           x T B                           |     
     |                   =====================                   |     
     |                         S. Grimme                         |     
     |          Mulliken Center for Theoretical Chemistry        |     
     |                    University of Bonn                     |     
      -----------------------------------------------------------      

   * xtb version 6.7.1 (edcfbbe) compiled by 'conda@c0858423619e' on 2025-09-04

   xtb is free software: you can redistribute it and/or modify it under
   the terms of the GNU Lesser General Public License as published by
   the Free Software Foundation, either version 3 of the License, or
   (at your option) any later version.
   
   xtb is distributed in the hope that it will be useful,
   but WITHOUT ANY WARRANTY; without even the implied warranty of
   MERCHANTABILITY or FITNESS FOR A PARTICULAR PURPOSE.  See the
   GNU Lesser General Public License for more details.
   
   Cite this work as:
   * C. Bannwarth, E. Caldeweyher, S. Ehlert, A. Hansen, P. Pracht,
     J. Seibert, S. Spicher, S. Grimme, WIREs Comput. Mol. Sci., 2020, 11,
     e01493. DOI: 10.1002/wcms.1493
   
   for GFN2-xTB:
   * C. Bannwarth, S. Ehlert and S. Grimme., J. Chem. Theory Comput., 2019,
     15, 1652-1671. DOI: 10.1021/acs.jctc.8b01176
   for GFN1-xTB:
   * S. Grimme, C. Bannwarth, P. Shushkov, J. Chem. Theory Comput., 2017,
     13, 1989-2009. DOI: 10.1021/acs.jctc.7b00118
   for GFN0-xTB:
   * P. Pracht, E. Caldeweyher, S. Ehlert, S. Grimme, ChemRxiv, 2019, preprint.
     DOI: 10.26434/chemrxiv.8326202.v1
   for GFN-FF:
   * S. Spicher and S. Grimme, Angew. Chem. Int. Ed., 2020, 59, 15665-15673.
     DOI: 10.1002/anie.202004239
   
   for ALPB and GBSA implicit solvation:
   * S. Ehlert, M. Stahn, S. Spicher, S. Grimme, J. Chem. Theory Comput.,
     2021, 17, 4250-4261. DOI: 10.1021/acs.jctc.1c00471
   
   for ddCOSMO and CPCM-X implicit solvation:
   * M. Stahn, S. Ehlert, S. Grimme, J. Phys. Chem. A,
     2023, XX, XXXX-XXXX. DOI: 10.1021/acs.jpca.3c04382
   
   for DFT-D4:
   * E. Caldeweyher, C. Bannwarth and S. Grimme, J. Chem. Phys., 2017,
     147, 034112. DOI: 10.1063/1.4993215
   * E. Caldeweyher, S. Ehlert, A. Hansen, H. Neugebauer, S. Spicher,
     C. Bannwarth and S. Grimme, J. Chem. Phys., 2019, 150, 154122.
     DOI: 10.1063/1.5090222
   * E. Caldeweyher, J.-M. Mewes, S. Ehlert and S. Grimme, Phys. Chem. Chem. Phys.
     2020, 22, 8499-8512. DOI: 10.1039/D0CP00502A
   
   for sTDA-xTB:
   * S. Grimme and C. Bannwarth, J. Chem. Phys., 2016, 145, 054103.
     DOI: 10.1063/1.4959605
   
   in the mass-spec context:
   * V. Asgeirsson, C. Bauer and S. Grimme, Chem. Sci., 2017, 8, 4879.
     DOI: 10.1039/c7sc00601b
   * J. Koopman and S. Grimme, ACS Omega 2019, 4, 12, 15120-15133.
     DOI: 10.1021/acsomega.9b02011
   
   for metadynamics refer to:
   * S. Grimme, J. Chem. Theory Comput., 2019, 155, 2847-2862
     DOI: 10.1021/acs.jctc.9b00143
   
   for SPH calculations refer to:
   * S. Spicher and S. Grimme, J. Chem. Theory Comput., 2021, 17, 1701-1714
     DOI: 10.1021/acs.jctc.0c01306
   
   for ONIOM refer to:
   * C. Plett, A. Katbashev, S. Ehlert, S. Grimme, M. Bursch,
     Phys. Chem. Chem. Phys., 2023, 25, 17860-17868. DOI: 10.1039/D3CP02178E
   
   for DIPRO refer to:
   * J. Kohn, N. Gildemeister, S. Grimme, D. Fazzi, A. Hansen,
     J. Chem. Phys., 2023, just accepted.
   
   for PTB refer to:
   * S. Grimme, M. Mueller, A. Hansen, J. Chem. Phys., 2023, 158, 124111.
     DOI: 10.1063/5.0137838
   
   with help from (in alphabetical order)
   P. Atkinson, C. Bannwarth, F. Bohle, G. Brandenburg, E. Caldeweyher
   M. Checinski, S. Dohm, S. Ehlert, S. Ehrlich, I. Gerasimov, C. Hölzer
   A. Katbashev, J. Kohn, J. Koopman, C. Lavigne, S. Lehtola, F. März, M. Müller,
   F. Musil, H. Neugebauer, J. Pisarek, C. Plett, P. Pracht, F. Pultar,
   J. Seibert, P. Shushkov, S. Spicher, M. Stahn, M. Steiner, T. Strunk,
   J. Stückrath, T. Rose, and J. Unsleber
   
 * started run on 2026/06/07 at 14:02:18.594     
   ID    Z sym.   atoms
    1    8 O      1, 2
    2    6 C      3, 4
    3    1 H      5-8

           -------------------------------------------------
          |                Calculation Setup                |
           -------------------------------------------------

          program call               : xtb xtbopt.xyz --hess --alpb water
          hostname                   : fedora
          coordinate file            : xtbopt.xyz
          omp threads                :                    16


           -------------------------------------------------
          |                 G F N 2 - x T B                 |
           -------------------------------------------------

        Reference                      10.1021/acs.jctc.8b01176
      * Hamiltonian:
        H0-scaling (s, p, d)           1.850000    2.230000    2.230000
        zeta-weighting                 0.500000
      * Dispersion:
        s8                             2.700000
        a1                             0.520000
        a2                             5.000000
        s9                             5.000000
      * Repulsion:
        kExp                           1.500000    1.000000
        rExp                           1.000000
      * Coulomb:
        alpha                          2.000000
        third order                    shell-resolved
        anisotropic                    true
        a3                             3.000000
        a5                             4.000000
        cn-shift                       1.200000
        cn-exp                         4.000000
        max-rad                        5.000000

      * Solvation model:               ALPB
        Solvent                        water
        Parameter file                 internal GFN2-xTB/ALPB
        Dielectric constant                8.0200E+01
        Reference state                gsolv [1 M gas/solution]
        Free energy shift                  1.0808E-03 Eh       6.7819E-01 kcal/mol
        Temperature                        2.9815E+02 K
        Density                            1.0000E+00 kg/L
        Solvent mass                       1.8000E+01 g/mol
        Interaction kernel             P16
        Born radius scaling (c1)           1.4744E+00
        Born radii integrator          GBOBC
        Born offset                        0.0000E+00 a0       0.0000E+00 AA
        H-bond correction              true
        Ion screening                  false
        Surface tension                    1.0000E-05 Eh       1.5569E+01 dyn/cm
        Grid points                               230 per atom

          ...................................................
          :                      SETUP                      :
          :.................................................:
          :  # basis functions                  20          :
          :  # atomic orbitals                  20          :
          :  # shells                           12          :
          :  # electrons                        24          :
          :  max. iterations                   250          :
          :  Hamiltonian                  GFN2-xTB          :
          :  restarted?                      false          :
          :  GBSA solvation                   true          :
          :  PC potential                    false          :
          :  electronic temp.          300.0000000     K    :
          :  accuracy                    1.0000000          :
          :  -> integral cutoff          0.2500000E+02      :
          :  -> integral neglect         0.1000000E-07      :
          :  -> SCF convergence          0.1000000E-05 Eh   :
          :  -> wf. convergence          0.1000000E-03 e    :
          :  Broyden damping             0.4000000          :
          :  net charge                          0          :
          :  unpaired electrons                  0          :
          ...................................................

 iter      E             dE          RMSdq      gap      omega  full diag
   1    -14.5643029 -0.145643E+02  0.529E+00    6.30       0.0  T
   2    -14.6026491 -0.383462E-01  0.259E+00    5.09       1.0  T
   3    -14.6040725 -0.142344E-02  0.134E+00    5.38       1.0  T
   4    -14.6051458 -0.107329E-02  0.205E-01    5.18       1.0  T
   5    -14.6052263 -0.805025E-04  0.867E-02    5.24       1.0  T
   6    -14.6052292 -0.293676E-05  0.424E-02    5.21       1.0  T
   7    -14.6052351 -0.590255E-05  0.174E-02    5.23       2.0  T
   8    -14.6052363 -0.113905E-05  0.388E-03    5.22       9.1  T
   9    -14.6052363 -0.474818E-07  0.963E-04    5.22      36.7  T
  10    -14.6052363 -0.234084E-08  0.128E-04    5.22     275.5  T

   *** convergence criteria satisfied after 10 iterations ***

         #    Occupation            Energy/Eh            Energy/eV
      -------------------------------------------------------------
         1        2.0000           -0.7452056             -20.2781
       ...           ...                  ...                  ...
         6        2.0000           -0.5801468             -15.7866
         7        2.0000           -0.5564059             -15.1406
         8        2.0000           -0.4944336             -13.4542
         9        2.0000           -0.4819306             -13.1140
        10        2.0000           -0.4767091             -12.9719
        11        2.0000           -0.4736496             -12.8887
        12        2.0000           -0.4286493             -11.6641 (HOMO)
        13                         -0.2366859              -6.4406 (LUMO)
        14                          0.0711093               1.9350
        15                          0.1689938               4.5986
        16                          0.1710337               4.6541
        17                          0.2115031               5.7553
       ...                                ...                  ...
        20                          0.6087168              16.5640
      -------------------------------------------------------------
                  HL-Gap            0.1919633 Eh            5.2236 eV
             Fermi-level           -0.3326676 Eh           -9.0523 eV

 SCC (total)                   0 d,  0 h,  0 min,  0.029 sec
 SCC setup                      ...        0 min,  0.003 sec (  9.462%)
 Dispersion                     ...        0 min,  0.000 sec (  1.158%)
 classical contributions        ...        0 min,  0.000 sec (  0.517%)
 integral evaluation            ...        0 min,  0.002 sec (  6.218%)
 iterations                     ...        0 min,  0.017 sec ( 57.905%)
 molecular gradient             ...        0 min,  0.007 sec ( 24.287%)
 printout                       ...        0 min,  0.000 sec (  0.344%)

         :::::::::::::::::::::::::::::::::::::::::::::::::::::
         ::                     SUMMARY                     ::
         :::::::::::::::::::::::::::::::::::::::::::::::::::::
         :: total energy             -14.472034722961 Eh    ::
         :: total w/o Gsasa/hb       -14.466097361949 Eh    ::
         :: gradient norm              0.000781961236 Eh/a0 ::
         :: HOMO-LUMO gap              5.223587976218 eV    ::
         ::.................................................::
         :: SCC energy               -14.605235870402 Eh    ::
         :: -> isotropic ES            0.066739404822 Eh    ::
         :: -> anisotropic ES         -0.000526742095 Eh    ::
         :: -> anisotropic XC          0.000466158325 Eh    ::
         :: -> dispersion             -0.002766898185 Eh    ::
         :: -> Gsolv                  -0.016792852408 Eh    ::
         ::    -> Gelec               -0.010855491396 Eh    ::
         ::    -> Gsasa                0.003121458552 Eh    ::
         ::    -> Ghb                 -0.010139579262 Eh    ::
         ::    -> Gshift               0.001080759698 Eh    ::
         :: repulsion energy           0.133201147441 Eh    ::
         :: add. restraining           0.000000000000 Eh    ::
         :: total charge              -0.000000000000 e     ::
         :::::::::::::::::::::::::::::::::::::::::::::::::::::

           ------------------------------------------------- 
          |                Numerical Hessian                |
           ------------------------------------------------- 
step length          :   0.00500
SCC accuracy         :   0.30000
Hessian scale factor :   1.00000
frozen atoms in %    :   0.00000    0
RMS gradient         :   0.00078
estimated CPU  time      0.01 min
estimated wall time      0.00 min

writing file <hessian>.

 projected vibrational frequencies (cm⁻¹)
eigval :       -0.00    -0.00    -0.00    -0.00     0.00     0.00
eigval :       38.12   406.36   531.45   565.13   635.36   904.01
eigval :      985.40  1005.25  1121.85  1243.95  1361.34  1423.76
eigval :     1424.37  1705.15  3036.67  3043.73  3078.93  3350.71
           -------------------------------------------------
          |                Property Printout                |
           -------------------------------------------------

    * Orbital Energies and Occupations

         #    Occupation            Energy/Eh            Energy/eV
      -------------------------------------------------------------
         1        2.0000           -0.7452061             -20.2781
         2        2.0000           -0.7233901             -19.6844
         3        2.0000           -0.6632362             -18.0476
         4        2.0000           -0.6137145             -16.7000
         5        2.0000           -0.5842130             -15.8972
         6        2.0000           -0.5801469             -15.7866
         7        2.0000           -0.5564061             -15.1406
         8        2.0000           -0.4944339             -13.4542
         9        2.0000           -0.4819314             -13.1140
        10        2.0000           -0.4767098             -12.9719
        11        2.0000           -0.4736498             -12.8887
        12        2.0000           -0.4286489             -11.6641 (HOMO)
        13                         -0.2366859              -6.4406 (LUMO)
        14                          0.0711091               1.9350
        15                          0.1689930               4.5985
        16                          0.1710334               4.6541
        17                          0.2115025               5.7553
        18                          0.2207601               6.0072
        19                          0.2972287               8.0880
        20                          0.6087170              16.5640
      -------------------------------------------------------------
                  HL-Gap            0.1919630 Eh            5.2236 eV
             Fermi-level           -0.3326674 Eh           -9.0523 eV

     #   Z          covCN         q      C6AA      α(0)
     1   8 O        1.660    -0.419    21.212     6.217
     2   8 O        0.856    -0.500    23.792     6.540
     3   6 C        3.754    -0.171    23.893     6.970
     4   6 C        2.687     0.376    20.625     7.432
     5   1 H        0.925     0.107     1.718     2.050
     6   1 H        0.925     0.107     1.720     2.051
     7   1 H        0.925     0.086     1.920     2.167
     8   1 H        0.804     0.413     0.461     1.067

 Mol. C6AA /au·bohr⁶  :        553.157188
 Mol. C8AA /au·bohr⁸  :      11937.221123
 Mol. α(0) /au        :         34.493697


Wiberg/Mayer (AO) data.
largest (>0.10) Wiberg bond orders for each atom

 ---------------------------------------------------------------------------
     #   Z sym  total        # sym  WBO       # sym  WBO       # sym  WBO
 ---------------------------------------------------------------------------
     1   8 O    2.181 --     4 C    1.175     8 H    0.805     2 O    0.170
     2   8 O    1.962 --     4 C    1.696     1 O    0.170
     3   6 C    3.984 --     4 C    1.007     7 H    0.982     6 H    0.953
                             5 H    0.952
     4   6 C    3.903 --     2 O    1.696     1 O    1.175     3 C    1.007
     5   1 H    0.988 --     3 C    0.952
     6   1 H    0.988 --     3 C    0.953
     7   1 H    0.993 --     3 C    0.982
     8   1 H    0.829 --     1 O    0.805
Molecule has the following symmetry elements: (sigma) 
It seems to be the Cs point group
 ---------------------------------------------------------------------------

Topologies differ in total number of bonds
Writing topology from bond orders to xtbtopo.mol

molecular dipole:
                 x           y           z       tot (Debye)
 q only:        0.678       0.852      -0.001
   full:        0.598       0.904      -0.001       2.756
molecular quadrupole (traceless):
                xx          xy          yy          xz          yz          zz
 q only:        2.256      -5.893      -1.479       0.000      -0.002      -0.778
  q+dip:        2.359      -6.799      -2.482      -0.001      -0.002       0.123
   full:        2.082      -6.897      -2.657      -0.001      -0.002       0.575

           -------------------------------------------------
          |               Frequency Printout                |
           -------------------------------------------------
 projected vibrational frequencies (cm⁻¹)
eigval :       -0.00    -0.00    -0.00    -0.00     0.00     0.00
eigval :       38.12   406.36   531.45   565.13   635.36   904.01
eigval :      985.40  1005.25  1121.85  1243.95  1361.34  1423.76
eigval :     1424.37  1705.15  3036.67  3043.73  3078.93  3350.71
 reduced masses (amu)
   1: 12.91   2: 14.00   3: 14.84   4: 12.05   5: 12.97   6: 10.56   7:  2.14   8: 10.46
   9:  5.28  10: 12.19  11:  6.20  12: 10.17  13:  6.34  14:  5.88  15:  6.77  16: 10.31
  17:  3.48  18:  1.80  19:  1.59  20: 13.19  21:  1.95  22:  1.40  23:  1.83  24:  1.85
 IR intensities (km·mol⁻¹)
   1:  0.69   2:  1.86   3:  3.55   4:  1.74   5:  1.62   6:  1.22   7:  1.86   8:  7.03
   9: 49.41  10: 80.29  11:219.76  12: 13.60  13: 75.42  14: 40.17  15:245.85  16:324.87
  17: 77.15  18: 46.49  19: 15.18  20:770.75  21:  0.45  22:  0.61  23:  9.54  24:192.74
 Raman intensities (Ä⁴*amu⁻¹)
   1:  0.00   2:  0.00   3:  0.00   4:  0.00   5:  0.00   6:  0.00   7:  0.00   8:  0.00
   9:  0.00  10:  0.00  11:  0.00  12:  0.00  13:  0.00  14:  0.00  15:  0.00  16:  0.00
  17:  0.00  18:  0.00  19:  0.00  20:  0.00  21:  0.00  22:  0.00  23:  0.00  24:  0.00
 output can be read by thermo (or use thermo option).
 writing <g98.out> molden fake output.
 recommended (thermochemical) frequency scaling factor: 1.0
           -------------------------------------------------
          |             Thermodynamic Functions             |
           -------------------------------------------------

cs  symmetry found (for desy threshold:  0.10E+00) used in thermo

          ...................................................
          :                      SETUP                      :
          :.................................................:
          :  # frequencies                          18      :
          :  # imaginary freq.                       0      :
          :  linear?                             false      :
          :  only rotor calc.                    false      :
          :  symmetry                               cs      :
          :  rotational number                       1      :
          :  scaling factor                  1.0000000      :
          :  rotor cutoff                   50.0000000 cm⁻¹ :
          :  imag. cutoff                  -20.0000000 cm⁻¹ :
          :.................................................:

    mode    ω/cm⁻¹     T·S(HO)/kcal·mol⁻¹    T·S(FR)/kcal·mol⁻¹   T·S(vib)
   ------------------------------------------------------------------------
       1     38.12    -1.59645 ( 25.25%)    -1.13487 ( 74.75%)    -1.25143
   ------------------------------------------------------------------------

   temp. (K)  partition function   enthalpy   heat capacity  entropy
                                   cal/mol     cal/K/mol   cal/K/mol   J/K/mol
 298.15  VIB   8.77                 1177.396      7.996      7.106
         ROT  0.357E+05              888.752      2.981     23.812
         INT  0.313E+06             2066.148     10.977     30.918
         TR   0.450E+27             1481.254      4.968     38.181
         TOT                        3547.4019    15.9449    69.0989   289.1099

       T/K    H(0)-H(T)+PV         H(T)/Eh          T*S/Eh         G(T)/Eh
   ------------------------------------------------------------------------
    298.15    0.565314E-02    0.645701E-01    0.328311E-01    0.317390E-01
   ------------------------------------------------------------------------

         :::::::::::::::::::::::::::::::::::::::::::::::::::::
         ::                  THERMODYNAMIC                  ::
         :::::::::::::::::::::::::::::::::::::::::::::::::::::
         :: total free energy         -14.440295765401 Eh   ::
         ::.................................................::
         :: total energy              -14.472034722773 Eh   ::
         :: zero point energy           0.058916942495 Eh   ::
         :: G(RRHO) w/o ZPVE           -0.027177985123 Eh   ::
         :: G(RRHO) contrib.            0.031738957372 Eh   ::
         :::::::::::::::::::::::::::::::::::::::::::::::::::::

           -------------------------------------------------
          | TOTAL ENERGY              -14.472034722773 Eh   |
          | TOTAL ENTHALPY            -14.407464635558 Eh   |
          | TOTAL FREE ENERGY         -14.440295765401 Eh   |
          | GRADIENT NORM               0.000784453962 Eh/α |
          | HOMO-LUMO GAP               5.223578552014 eV   |
           -------------------------------------------------

------------------------------------------------------------------------
 * finished run on 2026/06/07 at 14:02:18.699     
------------------------------------------------------------------------
 total:
 * wall-time:     0 d,  0 h,  0 min,  0.102 sec
 *  cpu-time:     0 d,  0 h,  0 min,  1.331 sec
 * ratio c/w:    13.001 speedup
 SCF:
 * wall-time:     0 d,  0 h,  0 min,  0.029 sec
 *  cpu-time:     0 d,  0 h,  0 min,  0.433 sec
 * ratio c/w:    14.725 speedup
 analytical hessian:
 * wall-time:     0 d,  0 h,  0 min,  0.047 sec
 *  cpu-time:     0 d,  0 h,  0 min,  0.537 sec
 * ratio c/w:    11.416 speedup

