15
Properties=species:S:1:pos:R:3 pbc="F F F"
O       -2.76200000      -0.00020000       0.00000000
N        2.79910000      -0.00010000      -0.00020000
C        1.38870000       0.00020000       0.00010000
C        0.69150000      -1.20790000       0.00020000
C        0.69110000       1.20820000       0.00010000
C       -1.40100000      -0.00010000      -0.00010000
C       -0.70340000      -1.20800000      -0.00010000
C       -0.70380000       1.20790000       0.00000000
H        1.22360000      -2.15570000       0.00020000
H        1.22290000       2.15610000       0.00000000
H       -1.23490000      -2.15590000      -0.00010000
H       -1.24170000       2.15210000       0.00000000
H        3.30500000      -0.87580000       0.00040000
H        3.30550000       0.87530000       0.00030000
H       -3.07710000      -0.92050000       0.00000000
