      -----------------------------------------------------------      
     |                   =====================                   |     
     |                           x T B                           |     
     |                   =====================                   |     
     |                         S. Grimme                         |     
     |          Mulliken Center for Theoretical Chemistry        |     
     |                    University of Bonn                     |     
      -----------------------------------------------------------      

   * xtb version 6.7.1 (edcfbbe) compiled by 'conda@c0858423619e' on 2025-09-04

   xtb is free software: you can redistribute it and/or modify it under
   the terms of the GNU Lesser General Public License as published by
   the Free Software Foundation, either version 3 of the License, or
   (at your option) any later version.
   
   xtb is distributed in the hope that it will be useful,
   but WITHOUT ANY WARRANTY; without even the implied warranty of
   MERCHANTABILITY or FITNESS FOR A PARTICULAR PURPOSE.  See the
   GNU Lesser General Public License for more details.
   
   Cite this work as:
   * C. Bannwarth, E. Caldeweyher, S. Ehlert, A. Hansen, P. Pracht,
     J. Seibert, S. Spicher, S. Grimme, WIREs Comput. Mol. Sci., 2020, 11,
     e01493. DOI: 10.1002/wcms.1493
   
   for GFN2-xTB:
   * C. Bannwarth, S. Ehlert and S. Grimme., J. Chem. Theory Comput., 2019,
     15, 1652-1671. DOI: 10.1021/acs.jctc.8b01176
   for GFN1-xTB:
   * S. Grimme, C. Bannwarth, P. Shushkov, J. Chem. Theory Comput., 2017,
     13, 1989-2009. DOI: 10.1021/acs.jctc.7b00118
   for GFN0-xTB:
   * P. Pracht, E. Caldeweyher, S. Ehlert, S. Grimme, ChemRxiv, 2019, preprint.
     DOI: 10.26434/chemrxiv.8326202.v1
   for GFN-FF:
   * S. Spicher and S. Grimme, Angew. Chem. Int. Ed., 2020, 59, 15665-15673.
     DOI: 10.1002/anie.202004239
   
   for ALPB and GBSA implicit solvation:
   * S. Ehlert, M. Stahn, S. Spicher, S. Grimme, J. Chem. Theory Comput.,
     2021, 17, 4250-4261. DOI: 10.1021/acs.jctc.1c00471
   
   for ddCOSMO and CPCM-X implicit solvation:
   * M. Stahn, S. Ehlert, S. Grimme, J. Phys. Chem. A,
     2023, XX, XXXX-XXXX. DOI: 10.1021/acs.jpca.3c04382
   
   for DFT-D4:
   * E. Caldeweyher, C. Bannwarth and S. Grimme, J. Chem. Phys., 2017,
     147, 034112. DOI: 10.1063/1.4993215
   * E. Caldeweyher, S. Ehlert, A. Hansen, H. Neugebauer, S. Spicher,
     C. Bannwarth and S. Grimme, J. Chem. Phys., 2019, 150, 154122.
     DOI: 10.1063/1.5090222
   * E. Caldeweyher, J.-M. Mewes, S. Ehlert and S. Grimme, Phys. Chem. Chem. Phys.
     2020, 22, 8499-8512. DOI: 10.1039/D0CP00502A
   
   for sTDA-xTB:
   * S. Grimme and C. Bannwarth, J. Chem. Phys., 2016, 145, 054103.
     DOI: 10.1063/1.4959605
   
   in the mass-spec context:
   * V. Asgeirsson, C. Bauer and S. Grimme, Chem. Sci., 2017, 8, 4879.
     DOI: 10.1039/c7sc00601b
   * J. Koopman and S. Grimme, ACS Omega 2019, 4, 12, 15120-15133.
     DOI: 10.1021/acsomega.9b02011
   
   for metadynamics refer to:
   * S. Grimme, J. Chem. Theory Comput., 2019, 155, 2847-2862
     DOI: 10.1021/acs.jctc.9b00143
   
   for SPH calculations refer to:
   * S. Spicher and S. Grimme, J. Chem. Theory Comput., 2021, 17, 1701-1714
     DOI: 10.1021/acs.jctc.0c01306
   
   for ONIOM refer to:
   * C. Plett, A. Katbashev, S. Ehlert, S. Grimme, M. Bursch,
     Phys. Chem. Chem. Phys., 2023, 25, 17860-17868. DOI: 10.1039/D3CP02178E
   
   for DIPRO refer to:
   * J. Kohn, N. Gildemeister, S. Grimme, D. Fazzi, A. Hansen,
     J. Chem. Phys., 2023, just accepted.
   
   for PTB refer to:
   * S. Grimme, M. Mueller, A. Hansen, J. Chem. Phys., 2023, 158, 124111.
     DOI: 10.1063/5.0137838
   
   with help from (in alphabetical order)
   P. Atkinson, C. Bannwarth, F. Bohle, G. Brandenburg, E. Caldeweyher
   M. Checinski, S. Dohm, S. Ehlert, S. Ehrlich, I. Gerasimov, C. Hölzer
   A. Katbashev, J. Kohn, J. Koopman, C. Lavigne, S. Lehtola, F. März, M. Müller,
   F. Musil, H. Neugebauer, J. Pisarek, C. Plett, P. Pracht, F. Pultar,
   J. Seibert, P. Shushkov, S. Spicher, M. Stahn, M. Steiner, T. Strunk,
   J. Stückrath, T. Rose, and J. Unsleber
   
 * started run on 2026/06/08 at 23:18:47.280     
   ID    Z sym.   atoms
    1    8 O      1-3
    2    6 C      4-7
    3    1 H      8-14

           -------------------------------------------------
          |                Calculation Setup                |
           -------------------------------------------------

          program call               : xtb anhidrido_protonado2.xyz --opt --alpb water --charge 1 --uhf 0
          hostname                   : fedora
          coordinate file            : anhidrido_protonado2.xyz
          omp threads                :                    16


           -------------------------------------------------
          |                 G F N 2 - x T B                 |
           -------------------------------------------------

        Reference                      10.1021/acs.jctc.8b01176
      * Hamiltonian:
        H0-scaling (s, p, d)           1.850000    2.230000    2.230000
        zeta-weighting                 0.500000
      * Dispersion:
        s8                             2.700000
        a1                             0.520000
        a2                             5.000000
        s9                             5.000000
      * Repulsion:
        kExp                           1.500000    1.000000
        rExp                           1.000000
      * Coulomb:
        alpha                          2.000000
        third order                    shell-resolved
        anisotropic                    true
        a3                             3.000000
        a5                             4.000000
        cn-shift                       1.200000
        cn-exp                         4.000000
        max-rad                        5.000000

      * Solvation model:               ALPB
        Solvent                        water
        Parameter file                 internal GFN2-xTB/ALPB
        Dielectric constant                8.0200E+01
        Reference state                gsolv [1 M gas/solution]
        Free energy shift                  1.0808E-03 Eh       6.7819E-01 kcal/mol
        Temperature                        2.9815E+02 K
        Density                            1.0000E+00 kg/L
        Solvent mass                       1.8000E+01 g/mol
        Interaction kernel             P16
        Born radius scaling (c1)           1.4744E+00
        Born radii integrator          GBOBC
        Born offset                        0.0000E+00 a0       0.0000E+00 AA
        H-bond correction              true
        Ion screening                  false
        Surface tension                    1.0000E-05 Eh       1.5569E+01 dyn/cm
        Grid points                               230 per atom

          ...................................................
          :                      SETUP                      :
          :.................................................:
          :  # basis functions                  35          :
          :  # atomic orbitals                  35          :
          :  # shells                           21          :
          :  # electrons                        40          :
          :  max. iterations                   250          :
          :  Hamiltonian                  GFN2-xTB          :
          :  restarted?                      false          :
          :  GBSA solvation                   true          :
          :  PC potential                    false          :
          :  electronic temp.          300.0000000     K    :
          :  accuracy                    1.0000000          :
          :  -> integral cutoff          0.2500000E+02      :
          :  -> integral neglect         0.1000000E-07      :
          :  -> SCF convergence          0.1000000E-05 Eh   :
          :  -> wf. convergence          0.1000000E-03 e    :
          :  Broyden damping             0.4000000          :
          :  net charge                          1          :
          :  unpaired electrons                  0          :
          ...................................................

 iter      E             dE          RMSdq      gap      omega  full diag
   1    -23.7419350 -0.237419E+02  0.582E+00    3.29       0.0  T
   2    -23.8121047 -0.701698E-01  0.352E+00    0.59       1.0  T
   3    -23.9191177 -0.107013E+00  0.245E+00    2.01       1.0  T
   4    -23.9471296 -0.280118E-01  0.477E-01    1.07       1.0  T
   5    -23.9488070 -0.167747E-02  0.186E-01    1.14       1.0  T
   6    -23.9489713 -0.164287E-03  0.104E-01    1.22       1.0  T
   7    -23.9490177 -0.463736E-04  0.417E-02    1.22       1.0  T
   8    -23.9490305 -0.128397E-04  0.146E-02    1.21       1.8  T
   9    -23.9490313 -0.759834E-06  0.590E-03    1.21       4.5  T
  10    -23.9490314 -0.114542E-06  0.195E-03    1.21      13.7  T
  11    -23.9490314 -0.243883E-07  0.813E-04    1.21      32.9  T
  12    -23.9490314  0.740240E-09  0.452E-04    1.21      59.2  T

   *** convergence criteria satisfied after 12 iterations ***

         #    Occupation            Energy/Eh            Energy/eV
      -------------------------------------------------------------
         1        2.0000           -0.8131345             -22.1265
       ...           ...                  ...                  ...
        14        2.0000           -0.5242528             -14.2656
        15        2.0000           -0.5178663             -14.0919
        16        2.0000           -0.5040832             -13.7168
        17        2.0000           -0.5018096             -13.6549
        18        2.0000           -0.4929563             -13.4140
        19        2.0000           -0.4828422             -13.1388
        20        2.0000           -0.4661178             -12.6837 (HOMO)
        21                         -0.4216161             -11.4728 (LUMO)
        22                         -0.3804648             -10.3530
        23                         -0.0328122              -0.8929
        24                         -0.0009836              -0.0268
        25                          0.0437986               1.1918
       ...                                ...                  ...
        35                          0.1934388               5.2637
      -------------------------------------------------------------
                  HL-Gap            0.0445017 Eh            1.2110 eV
             Fermi-level           -0.4438669 Eh          -12.0782 eV

 SCC (total)                   0 d,  0 h,  0 min,  0.202 sec
 SCC setup                      ...        0 min,  0.001 sec (  0.443%)
 Dispersion                     ...        0 min,  0.000 sec (  0.195%)
 classical contributions        ...        0 min,  0.000 sec (  0.091%)
 integral evaluation            ...        0 min,  0.003 sec (  1.735%)
 iterations                     ...        0 min,  0.193 sec ( 95.978%)
 molecular gradient             ...        0 min,  0.003 sec (  1.509%)
 printout                       ...        0 min,  0.000 sec (  0.030%)

         :::::::::::::::::::::::::::::::::::::::::::::::::::::
         ::                     SUMMARY                     ::
         :::::::::::::::::::::::::::::::::::::::::::::::::::::
         :: total energy             -23.789518710750 Eh    ::
         :: total w/o Gsasa/hb       -23.775038066684 Eh    ::
         :: gradient norm              0.336313356418 Eh/a0 ::
         :: HOMO-LUMO gap              1.210952554012 eV    ::
         ::.................................................::
         :: SCC energy               -23.949012688189 Eh    ::
         :: -> isotropic ES            0.184306098794 Eh    ::
         :: -> anisotropic ES         -0.008929617943 Eh    ::
         :: -> anisotropic XC          0.006001205439 Eh    ::
         :: -> dispersion             -0.006466558301 Eh    ::
         :: -> Gsolv                  -0.118430804959 Eh    ::
         ::    -> Gelec               -0.103950160892 Eh    ::
         ::    -> Gsasa                0.003501771393 Eh    ::
         ::    -> Ghb                 -0.019063175158 Eh    ::
         ::    -> Gshift               0.001080759698 Eh    ::
         :: repulsion energy           0.159493977439 Eh    ::
         :: add. restraining           0.000000000000 Eh    ::
         :: total charge               1.000000000000 e     ::
         :::::::::::::::::::::::::::::::::::::::::::::::::::::

      ----------------------------------------------------------- 
     |                   =====================                   |
     |                        A N C O P T                        |
     |                   =====================                   |
     |               Approximate Normal Coordinate               |
     |                Rational Function Optimizer                |
      ----------------------------------------------------------- 
      ----------------------------------------------------------- 
     |                   =====================                   |
     |                        A N C O P T                        |
     |                   =====================                   |
     |               Approximate Normal Coordinate               |
     |                Rational Function Optimizer                |
      ----------------------------------------------------------- 

          ...................................................
          :                      SETUP                      :
          :.................................................:
          :   optimization level            normal          :
          :   max. optcycles                   200          :
          :   ANC micro-cycles                  20          :
          :   degrees of freedom                36          :
          :.................................................:
          :   RF solver                   davidson          :
          :   write xtbopt.log                true          :
          :   linear?                        false          :
          :   energy convergence         0.5000000E-05 Eh   :
          :   grad. convergence          0.1000000E-02 Eh/α :
          :   maxmium RF displ.          1.0000000          :
          :   Hlow (freq-cutoff)         0.1000000E-01      :
          :   Hmax (freq-cutoff)         5.0000000          :
          :   S6 in model hess.         20.0000000          :
          ...................................................

generating ANC from exact Hessian ...
Using Lindh-Hessian (1995)
 Shifting diagonal of input Hessian by    7.5122236571113898E-003
 Lowest  eigenvalues of input Hessian
    0.000000    0.000000    0.000000    0.000000    0.000000    0.000000
    0.010000    0.010497    0.014132    0.017399    0.021369    0.029086
    0.031650    0.045374    0.046480    0.053542    0.068676    0.079467
 Highest eigenvalues
    1.053267    1.172820    1.267170    1.331505    1.421784    1.516115


........................................................................
.............................. CYCLE    1 ..............................
........................................................................

 iter      E             dE          RMSdq      gap      omega  full diag
   1    -23.9490314 -0.239490E+02  0.973E-05    1.21       0.0  T
   2    -23.9490314 -0.803979E-11  0.704E-05    1.21     379.4  T
   3    -23.9490314 -0.351044E-10  0.414E-05    1.21     645.9  T
     SCC iter.                  ...        0 min,  0.044 sec
     gradient                   ...        0 min,  0.003 sec
 * total energy  :   -23.7895187 Eh     change       -0.2494616E-08 Eh
   gradient norm :     0.3363151 Eh/α   predicted     0.0000000E+00 (-100.00%)
   displ. norm   :     0.4714095 α      lambda       -0.1286953E+00
   maximum displ.:     0.2068596 α      in ANC's #25, #21, #6, ...

........................................................................
.............................. CYCLE    2 ..............................
........................................................................

 iter      E             dE          RMSdq      gap      omega  full diag
   1    -24.0802482 -0.240802E+02  0.950E-01    2.19       0.0  T
   2    -24.0812908 -0.104255E-02  0.533E-01    2.07       1.0  T
   3    -24.0812116  0.791285E-04  0.353E-01    2.21       1.0  T
   4    -24.0818001 -0.588449E-03  0.393E-02    2.13       1.0  T
   5    -24.0818035 -0.339716E-05  0.166E-02    2.13       1.6  T
   6    -24.0818037 -0.247075E-06  0.777E-03    2.13       3.4  T
   7    -24.0818039 -0.173610E-06  0.369E-03    2.13       7.2  T
   8    -24.0818039 -0.543693E-07  0.106E-03    2.13      25.3  T
   9    -24.0818039 -0.198545E-08  0.203E-04    2.13     131.7  T
  10    -24.0818039 -0.334204E-10  0.810E-05    2.13     329.8  T
     SCC iter.                  ...        0 min,  0.264 sec
     gradient                   ...        0 min,  0.031 sec
 * total energy  :   -23.8886823 Eh     change       -0.9916355E-01 Eh
   gradient norm :     0.2181781 Eh/α   predicted    -0.7864747E-01 ( -20.69%)
   displ. norm   :     0.4994855 α      lambda       -0.9861279E-01
   maximum displ.:     0.2311839 α      in ANC's #26, #25, #27, ...

........................................................................
.............................. CYCLE    3 ..............................
........................................................................

 iter      E             dE          RMSdq      gap      omega  full diag
   1    -24.2079300 -0.242079E+02  0.988E-01    3.17       0.0  T
   2    -24.2138430 -0.591302E-02  0.492E-01    3.37       1.0  T
   3    -24.2141664 -0.323431E-03  0.289E-01    3.51       1.0  T
   4    -24.2141910 -0.245842E-04  0.110E-01    3.51       1.0  T
   5    -24.2142157 -0.246678E-04  0.279E-02    3.52       1.0  T
   6    -24.2142188 -0.313138E-05  0.124E-02    3.51       2.2  T
   7    -24.2142190 -0.173982E-06  0.583E-03    3.51       4.6  T
   8    -24.2142191 -0.829847E-07  0.203E-03    3.51      13.1  T
   9    -24.2142191 -0.724420E-08  0.557E-04    3.51      48.0  T
  10    -24.2142191 -0.386365E-09  0.144E-04    3.51     185.6  T
     SCC iter.                  ...        0 min,  0.251 sec
     gradient                   ...        0 min,  0.002 sec
 * total energy  :   -23.9199642 Eh     change       -0.3128190E-01 Eh
   gradient norm :     0.2814086 Eh/α   predicted    -0.6160764E-01 (  96.94%)
   displ. norm   :     0.4141095 α      lambda       -0.5947599E-01
   maximum displ.:     0.2230961 α      in ANC's #8, #6, #19, ...

........................................................................
.............................. CYCLE    4 ..............................
........................................................................

 iter      E             dE          RMSdq      gap      omega  full diag
   1    -24.1738909 -0.241739E+02  0.737E-01    3.80       0.0  T
   2    -24.1773158 -0.342487E-02  0.411E-01    3.63       1.0  T
   3    -24.1774549 -0.139102E-03  0.234E-01    3.59       1.0  T
   4    -24.1774566 -0.174521E-05  0.799E-02    3.56       1.0  T
   5    -24.1774773 -0.207298E-04  0.261E-02    3.57       1.0  T
   6    -24.1774802 -0.283421E-05  0.935E-03    3.57       2.9  T
   7    -24.1774802 -0.593279E-07  0.415E-03    3.57       6.4  T
   8    -24.1774803 -0.502479E-07  0.150E-03    3.57      17.8  T
   9    -24.1774803 -0.547353E-08  0.540E-04    3.57      49.5  T
  10    -24.1774803 -0.480807E-09  0.142E-04    3.57     188.7  T
     SCC iter.                  ...        0 min,  0.196 sec
     gradient                   ...        0 min,  0.003 sec
 * total energy  :   -23.9389321 Eh     change       -0.1896798E-01 Eh
   gradient norm :     0.1112897 Eh/α   predicted    -0.3483768E-01 (  83.67%)
   displ. norm   :     0.3495678 α      lambda       -0.1386900E-01
   maximum displ.:     0.1774655 α      in ANC's #5, #1, #13, ...

........................................................................
.............................. CYCLE    5 ..............................
........................................................................

 iter      E             dE          RMSdq      gap      omega  full diag
   1    -24.1859307 -0.241859E+02  0.336E-01    3.41       0.0  T
   2    -24.1861835 -0.252801E-03  0.204E-01    3.51       1.0  T
   3    -24.1861950 -0.114937E-04  0.909E-02    3.50       1.0  T
   4    -24.1862132 -0.181833E-04  0.229E-02    3.53       1.2  T
   5    -24.1862148 -0.160387E-05  0.801E-03    3.52       3.3  T
   6    -24.1862148 -0.876922E-07  0.298E-03    3.52       9.0  T
   7    -24.1862148 -0.779991E-08  0.843E-04    3.52      31.7  T
   8    -24.1862149 -0.157531E-08  0.403E-04    3.52      66.3  T
     SCC iter.                  ...        0 min,  0.100 sec
     gradient                   ...        0 min,  0.003 sec
 * total energy  :   -23.9486073 Eh     change       -0.9675144E-02 Eh
   gradient norm :     0.0636146 Eh/α   predicted    -0.7781875E-02 ( -19.57%)
   displ. norm   :     0.5538276 α      lambda       -0.1520695E-01
   maximum displ.:     0.3281964 α      in ANC's #5, #13, #2, ...

........................................................................
.............................. CYCLE    6 ..............................
........................................................................

 iter      E             dE          RMSdq      gap      omega  full diag
   1    -24.2050525 -0.242051E+02  0.546E-01    3.83       0.0  T
   2    -24.2056774 -0.624844E-03  0.284E-01    3.88       1.0  T
   3    -24.2057061 -0.287210E-04  0.114E-01    3.88       1.0  T
   4    -24.2057114 -0.532205E-05  0.256E-02    3.89       1.0  T
   5    -24.2057132 -0.178807E-05  0.126E-02    3.89       2.1  T
   6    -24.2057135 -0.289717E-06  0.484E-03    3.89       5.5  T
   7    -24.2057135 -0.396100E-07  0.205E-03    3.89      13.0  T
   8    -24.2057135 -0.808258E-08  0.359E-04    3.89      74.5  T
   9    -24.2057135 -0.153268E-09  0.151E-04    3.89     176.6  T
     SCC iter.                  ...        0 min,  0.157 sec
     gradient                   ...        0 min,  0.012 sec
 * total energy  :   -23.9576521 Eh     change       -0.9044815E-02 Eh
   gradient norm :     0.0821196 Eh/α   predicted    -0.9935661E-02 (   9.85%)
   displ. norm   :     0.4126345 α      lambda       -0.8386015E-02
   maximum displ.:     0.3185862 α      in ANC's #2, #10, #7, ...

........................................................................
.............................. CYCLE    7 ..............................
........................................................................

 iter      E             dE          RMSdq      gap      omega  full diag
   1    -24.2098304 -0.242098E+02  0.320E-01    3.98       0.0  T
   2    -24.2098815 -0.510871E-04  0.189E-01    3.96       1.0  T
   3    -24.2098829 -0.144255E-05  0.335E-02    3.95       1.0  T
   4    -24.2098865 -0.353104E-05  0.982E-03    3.95       2.7  T
   5    -24.2098869 -0.467179E-06  0.422E-03    3.95       6.3  T
   6    -24.2098870 -0.279957E-07  0.182E-03    3.95      14.7  T
   7    -24.2098870 -0.333095E-08  0.341E-04    3.95      78.3  T
   8    -24.2098870 -0.214758E-09  0.200E-04    3.95     133.3  T
     SCC iter.                  ...        0 min,  0.215 sec
     gradient                   ...        0 min,  0.003 sec
 * total energy  :   -23.9640742 Eh     change       -0.6422064E-02 Eh
   gradient norm :     0.0503547 Eh/α   predicted    -0.4906944E-02 ( -23.59%)
   displ. norm   :     0.5088604 α      lambda       -0.8519260E-02
   maximum displ.:     0.4298786 α      in ANC's #2, #5, #32, ...

........................................................................
.............................. CYCLE    8 ..............................
........................................................................

 iter      E             dE          RMSdq      gap      omega  full diag
   1    -24.2184547 -0.242185E+02  0.315E-01    4.09       0.0  T
   2    -24.2186088 -0.154132E-03  0.173E-01    4.06       1.0  T
   3    -24.2186191 -0.102171E-04  0.536E-02    4.05       1.0  T
   4    -24.2186206 -0.151667E-05  0.154E-02    4.05       1.7  T
   5    -24.2186214 -0.833637E-06  0.536E-03    4.05       5.0  T
   6    -24.2186215 -0.831236E-07  0.225E-03    4.05      11.9  T
   7    -24.2186215 -0.767999E-08  0.896E-04    4.05      29.8  T
   8    -24.2186215 -0.196954E-08  0.424E-04    4.05      63.0  T
     SCC iter.                  ...        0 min,  0.159 sec
     gradient                   ...        0 min,  0.018 sec
 * total energy  :   -23.9702845 Eh     change       -0.6210377E-02 Eh
   gradient norm :     0.0411653 Eh/α   predicted    -0.5362615E-02 ( -13.65%)
   displ. norm   :     0.5400570 α      lambda       -0.6376891E-02
   maximum displ.:     0.4561022 α      in ANC's #2, #5, #3, ...

........................................................................
.............................. CYCLE    9 ..............................
........................................................................

 iter      E             dE          RMSdq      gap      omega  full diag
   1    -24.2235189 -0.242235E+02  0.255E-01    4.05       0.0  T
   2    -24.2235961 -0.772698E-04  0.132E-01    4.03       1.0  T
   3    -24.2236032 -0.703621E-05  0.399E-02    4.02       1.0  T
   4    -24.2236045 -0.133772E-05  0.134E-02    4.02       2.0  T
   5    -24.2236052 -0.711817E-06  0.372E-03    4.02       7.2  T
   6    -24.2236052 -0.186748E-07  0.193E-03    4.02      13.9  T
   7    -24.2236052 -0.492938E-08  0.777E-04    4.02      34.4  T
   8    -24.2236052 -0.170777E-08  0.313E-04    4.02      85.5  T
     SCC iter.                  ...        0 min,  0.214 sec
     gradient                   ...        0 min,  0.019 sec
 * total energy  :   -23.9755333 Eh     change       -0.5248759E-02 Eh
   gradient norm :     0.0445027 Eh/α   predicted    -0.4118398E-02 ( -21.54%)
   displ. norm   :     0.5863696 α      lambda       -0.8362342E-02
   maximum displ.:     0.4248683 α      in ANC's #2, #3, #9, ...

........................................................................
.............................. CYCLE   10 ..............................
........................................................................

 iter      E             dE          RMSdq      gap      omega  full diag
   1    -24.2379130 -0.242379E+02  0.354E-01    4.02       0.0  T
   2    -24.2381481 -0.235050E-03  0.191E-01    3.95       1.0  T
   3    -24.2381698 -0.217324E-04  0.730E-02    3.94       1.0  T
   4    -24.2381759 -0.610717E-05  0.302E-02    3.93       1.0  T
   5    -24.2381784 -0.248297E-05  0.816E-03    3.93       3.3  T
   6    -24.2381785 -0.961331E-07  0.403E-03    3.94       6.6  T
   7    -24.2381785 -0.245840E-07  0.124E-03    3.94      21.5  T
   8    -24.2381785 -0.456408E-08  0.500E-04    3.94      53.5  T
   9    -24.2381785 -0.429210E-09  0.180E-04    3.94     148.1  T
     SCC iter.                  ...        0 min,  0.200 sec
     gradient                   ...        0 min,  0.002 sec
 * total energy  :   -23.9796990 Eh     change       -0.4165733E-02 Eh
   gradient norm :     0.0610112 Eh/α   predicted    -0.5618758E-02 (  34.88%)
   displ. norm   :     0.6062967 α      lambda       -0.1126672E-01
   maximum displ.:     0.4045121 α      in ANC's #2, #5, #32, ...

........................................................................
.............................. CYCLE   11 ..............................
........................................................................

 iter      E             dE          RMSdq      gap      omega  full diag
   1    -24.2169718 -0.242170E+02  0.408E-01    3.81       0.0  T
   2    -24.2172850 -0.313220E-03  0.222E-01    3.79       1.0  T
   3    -24.2173099 -0.249600E-04  0.957E-02    3.76       1.0  T
   4    -24.2173197 -0.972680E-05  0.288E-02    3.77       1.0  T
   5    -24.2173229 -0.324322E-05  0.127E-02    3.77       2.1  T
   6    -24.2173232 -0.272009E-06  0.585E-03    3.77       4.6  T
   7    -24.2173232 -0.664353E-07  0.178E-03    3.77      15.0  T
   8    -24.2173233 -0.958347E-08  0.702E-04    3.77      38.1  T
   9    -24.2173233 -0.734460E-09  0.310E-04    3.77      86.1  T
     SCC iter.                  ...        0 min,  0.185 sec
     gradient                   ...        0 min,  0.002 sec
 * total energy  :   -23.9813325 Eh     change       -0.1633426E-02 Eh
   gradient norm :     0.0587463 Eh/α   predicted    -0.7704159E-02 ( 371.66%)
   displ. norm   :     0.2618501 α      lambda       -0.7660268E-02
   maximum displ.:     0.1615761 α      in ANC's #2, #4, #10, ...

........................................................................
.............................. CYCLE   12 ..............................
........................................................................

 iter      E             dE          RMSdq      gap      omega  full diag
   1    -24.2175750 -0.242176E+02  0.269E-01    3.74       0.0  T
   2    -24.2177479 -0.172910E-03  0.168E-01    3.78       1.0  T
   3    -24.2177611 -0.132024E-04  0.755E-02    3.78       1.0  T
   4    -24.2177720 -0.109114E-04  0.228E-02    3.79       1.2  T
   5    -24.2177734 -0.141055E-05  0.860E-03    3.78       3.1  T
   6    -24.2177735 -0.122625E-06  0.388E-03    3.78       6.9  T
   7    -24.2177736 -0.271704E-07  0.162E-03    3.78      16.5  T
   8    -24.2177736 -0.668601E-08  0.627E-04    3.78      42.6  T
   9    -24.2177736 -0.990958E-09  0.216E-04    3.78     123.6  T
     SCC iter.                  ...        0 min,  0.216 sec
     gradient                   ...        0 min,  0.002 sec
 * total energy  :   -23.9844154 Eh     change       -0.3082929E-02 Eh
   gradient norm :     0.0348100 Eh/α   predicted    -0.4092747E-02 (  32.76%)
   displ. norm   :     0.1710344 α      lambda       -0.3474875E-02
   maximum displ.:     0.0846055 α      in ANC's #10, #5, #6, ...

........................................................................
.............................. CYCLE   13 ..............................
........................................................................

 iter      E             dE          RMSdq      gap      omega  full diag
   1    -24.2368013 -0.242368E+02  0.177E-01    3.95       0.0  T
   2    -24.2369070 -0.105702E-03  0.109E-01    3.91       1.0  T
   3    -24.2369133 -0.630669E-05  0.550E-02    3.92       1.0  T
   4    -24.2369158 -0.255289E-05  0.111E-02    3.91       2.4  T
   5    -24.2369162 -0.330549E-06  0.356E-03    3.91       7.5  T
   6    -24.2369162 -0.210265E-07  0.165E-03    3.91      16.2  T
   7    -24.2369162 -0.288184E-08  0.669E-04    3.91      39.9  T
   8    -24.2369162 -0.116492E-08  0.230E-04    3.91     116.4  T
     SCC iter.                  ...        0 min,  0.251 sec
     gradient                   ...        0 min,  0.010 sec
 * total energy  :   -23.9855019 Eh     change       -0.1086524E-02 Eh
   gradient norm :     0.0259016 Eh/α   predicted    -0.1788260E-02 (  64.59%)
   displ. norm   :     0.3471234 α      lambda       -0.1825941E-02
   maximum displ.:     0.2617330 α      in ANC's #2, #1, #3, ...

........................................................................
.............................. CYCLE   14 ..............................
........................................................................

 iter      E             dE          RMSdq      gap      omega  full diag
   1    -24.2278193 -0.242278E+02  0.177E-01    3.82       0.0  T
   2    -24.2279099 -0.906002E-04  0.893E-02    3.84       1.0  T
   3    -24.2279127 -0.274475E-05  0.428E-02    3.84       1.0  T
   4    -24.2279130 -0.329487E-06  0.833E-03    3.84       3.2  T
   5    -24.2279134 -0.412489E-06  0.299E-03    3.84       8.9  T
   6    -24.2279134 -0.103745E-07  0.128E-03    3.84      20.8  T
   7    -24.2279134 -0.176254E-08  0.392E-04    3.84      68.2  T
   8    -24.2279134 -0.263711E-09  0.118E-04    3.84     227.4  T
     SCC iter.                  ...        0 min,  0.141 sec
     gradient                   ...        0 min,  0.003 sec
 * total energy  :   -23.9863490 Eh     change       -0.8470555E-03 Eh
   gradient norm :     0.0174977 Eh/α   predicted    -0.1022979E-02 (  20.77%)
   displ. norm   :     0.1107650 α      lambda       -0.9117749E-03
   maximum displ.:     0.0537696 α      in ANC's #4, #8, #6, ...

........................................................................
.............................. CYCLE   15 ..............................
........................................................................

 iter      E             dE          RMSdq      gap      omega  full diag
   1    -24.2291336 -0.242291E+02  0.983E-02    3.84       0.0  T
   2    -24.2291446 -0.110222E-04  0.582E-02    3.85       1.0  T
   3    -24.2291454 -0.707242E-06  0.191E-02    3.84       1.4  T
   4    -24.2291462 -0.895488E-06  0.543E-03    3.84       4.9  T
   5    -24.2291463 -0.630291E-07  0.222E-03    3.84      12.0  T
   6    -24.2291463 -0.499684E-08  0.603E-04    3.85      44.4  T
   7    -24.2291463 -0.544130E-09  0.310E-04    3.85      86.1  T
     SCC iter.                  ...        0 min,  0.121 sec
     gradient                   ...        0 min,  0.009 sec
 * total energy  :   -23.9866820 Eh     change       -0.3330304E-03 Eh
   gradient norm :     0.0123939 Eh/α   predicted    -0.4614810E-03 (  38.57%)
   displ. norm   :     0.0896716 α      lambda       -0.3543164E-03
   maximum displ.:     0.0530363 α      in ANC's #3, #2, #1, ...

........................................................................
.............................. CYCLE   16 ..............................
........................................................................

 iter      E             dE          RMSdq      gap      omega  full diag
   1    -24.2303239 -0.242303E+02  0.527E-02    3.85       0.0  T
   2    -24.2303253 -0.140109E-05  0.316E-02    3.85       1.0  T
   3    -24.2303253  0.243695E-07  0.730E-03    3.85       3.7  T
   4    -24.2303255 -0.210082E-06  0.177E-03    3.85      15.1  T
   5    -24.2303255 -0.108801E-07  0.922E-04    3.85      29.0  T
   6    -24.2303255 -0.971038E-09  0.288E-04    3.85      92.7  T
     SCC iter.                  ...        0 min,  0.135 sec
     gradient                   ...        0 min,  0.008 sec
 * total energy  :   -23.9869033 Eh     change       -0.2212566E-03 Eh
   gradient norm :     0.0066985 Eh/α   predicted    -0.1785836E-03 ( -19.29%)
   displ. norm   :     0.0904357 α      lambda       -0.1286154E-03
   maximum displ.:     0.0499555 α      in ANC's #3, #1, #2, ...

........................................................................
.............................. CYCLE   17 ..............................
........................................................................

 iter      E             dE          RMSdq      gap      omega  full diag
   1    -24.2315829 -0.242316E+02  0.450E-02    3.85       0.0  T
   2    -24.2315837 -0.835203E-06  0.266E-02    3.85       1.0  T
   3    -24.2315838 -0.508469E-07  0.455E-03    3.85       5.9  T
   4    -24.2315839 -0.776886E-07  0.156E-03    3.85      17.1  T
   5    -24.2315839 -0.702142E-08  0.773E-04    3.85      34.6  T
   6    -24.2315839 -0.877023E-09  0.322E-04    3.85      82.9  T
     SCC iter.                  ...        0 min,  0.150 sec
     gradient                   ...        0 min,  0.004 sec
 * total energy  :   -23.9869880 Eh     change       -0.8477360E-04 Eh
   gradient norm :     0.0065011 Eh/α   predicted    -0.6483375E-04 ( -23.52%)
   displ. norm   :     0.0980845 α      lambda       -0.9786342E-04
   maximum displ.:     0.0747276 α      in ANC's #3, #1, #2, ...

........................................................................
.............................. CYCLE   18 ..............................
........................................................................

 iter      E             dE          RMSdq      gap      omega  full diag
   1    -24.2316700 -0.242317E+02  0.471E-02    3.85       0.0  T
   2    -24.2316707 -0.639640E-06  0.274E-02    3.85       1.0  T
   3    -24.2316707 -0.454563E-07  0.409E-03    3.85       6.5  T
   4    -24.2316708 -0.637692E-07  0.150E-03    3.85      17.8  T
   5    -24.2316708 -0.679627E-08  0.672E-04    3.85      39.8  T
   6    -24.2316708 -0.398920E-09  0.269E-04    3.85      99.3  T
     SCC iter.                  ...        0 min,  0.151 sec
     gradient                   ...        0 min,  0.003 sec
 * total energy  :   -23.9870621 Eh     change       -0.7407400E-04 Eh
   gradient norm :     0.0067663 Eh/α   predicted    -0.4940299E-04 ( -33.31%)
   displ. norm   :     0.1715022 α      lambda       -0.1810734E-03
   maximum displ.:     0.1448305 α      in ANC's #3, #1, #4, ...

........................................................................
.............................. CYCLE   19 ..............................
........................................................................

 iter      E             dE          RMSdq      gap      omega  full diag
   1    -24.2324124 -0.242324E+02  0.781E-02    3.84       0.0  T
   2    -24.2324137 -0.128957E-05  0.462E-02    3.84       1.0  T
   3    -24.2324139 -0.145967E-06  0.501E-03    3.84       5.3  T
   4    -24.2324140 -0.109709E-06  0.214E-03    3.84      12.5  T
   5    -24.2324140 -0.121822E-07  0.119E-03    3.84      22.4  T
   6    -24.2324140 -0.111967E-08  0.175E-04    3.84     153.0  T
   7    -24.2324140 -0.863274E-10  0.755E-05    3.84     354.1  T
     SCC iter.                  ...        0 min,  0.102 sec
     gradient                   ...        0 min,  0.003 sec
 * total energy  :   -23.9871890 Eh     change       -0.1268791E-03 Eh
   gradient norm :     0.0074922 Eh/α   predicted    -0.9319916E-04 ( -26.54%)
   displ. norm   :     0.2609886 α      lambda       -0.2442145E-03
   maximum displ.:     0.2381163 α      in ANC's #3, #1, #13, ...

........................................................................
.............................. CYCLE   20 ..............................
........................................................................

 iter      E             dE          RMSdq      gap      omega  full diag
   1    -24.2299314 -0.242299E+02  0.119E-01    3.83       0.0  T
   2    -24.2299352 -0.377587E-05  0.696E-02    3.83       1.0  T
   3    -24.2299357 -0.441674E-06  0.967E-03    3.82       2.8  T
   4    -24.2299360 -0.352125E-06  0.383E-03    3.82       7.0  T
   5    -24.2299360 -0.405480E-07  0.180E-03    3.82      14.9  T
   6    -24.2299360 -0.200523E-08  0.514E-04    3.82      52.0  T
   7    -24.2299360 -0.433591E-09  0.138E-04    3.82     193.7  T
     SCC iter.                  ...        0 min,  0.107 sec
     gradient                   ...        0 min,  0.003 sec
 * total energy  :   -23.9873189 Eh     change       -0.1299599E-03 Eh
   gradient norm :     0.0077270 Eh/α   predicted    -0.1304230E-03 (   0.36%)
   displ. norm   :     0.1551244 α      lambda       -0.2402804E-03
   maximum displ.:     0.1157137 α      in ANC's #3, #2, #12, ...
 * RMSD in coord.:     1.0561900 α      energy gain  -0.1978002E+00 Eh

generating ANC from exact Hessian ...
Using Lindh-Hessian (1995)
 Shifting diagonal of input Hessian by    6.0007667448040052E-003
 Lowest  eigenvalues of input Hessian
    0.000000    0.000000    0.000000    0.000000    0.000000    0.000000
    0.010000    0.011440    0.017531    0.019907    0.030432    0.044903
    0.050703    0.054111    0.067009    0.081346    0.089848    0.095986
 Highest eigenvalues
    1.205827    1.266571    1.541676    1.986071    2.337409    2.356237


........................................................................
.............................. CYCLE   21 ..............................
........................................................................

 iter      E             dE          RMSdq      gap      omega  full diag
   1    -24.2320986 -0.242321E+02  0.667E-02    3.81       0.0  T
   2    -24.2321035 -0.485580E-05  0.400E-02    3.80       1.0  T
   3    -24.2321036 -0.100346E-06  0.135E-02    3.81       2.0  T
   4    -24.2321040 -0.451562E-06  0.331E-03    3.80       8.1  T
   5    -24.2321041 -0.417079E-07  0.144E-03    3.80      18.5  T
   6    -24.2321041 -0.233776E-08  0.584E-04    3.81      45.8  T
   7    -24.2321041 -0.760203E-09  0.231E-04    3.81     115.9  T
     SCC iter.                  ...        0 min,  0.193 sec
     gradient                   ...        0 min,  0.003 sec
 * total energy  :   -23.9874580 Eh     change       -0.1390946E-03 Eh
   gradient norm :     0.0051100 Eh/α   predicted     0.0000000E+00 (-100.00%)
   displ. norm   :     0.0442787 α      lambda       -0.9094123E-04
   maximum displ.:     0.0264300 α      in ANC's #5, #2, #3, ...

........................................................................
.............................. CYCLE   22 ..............................
........................................................................

 iter      E             dE          RMSdq      gap      omega  full diag
   1    -24.2321502 -0.242322E+02  0.253E-02    3.81       0.0  T
   2    -24.2321504 -0.196421E-06  0.148E-02    3.81       1.8  T
   3    -24.2321504 -0.186941E-07  0.189E-03    3.81      14.1  T
   4    -24.2321504 -0.793808E-08  0.662E-04    3.81      40.4  T
   5    -24.2321504 -0.144594E-08  0.288E-04    3.81      92.9  T
     SCC iter.                  ...        0 min,  0.045 sec
     gradient                   ...        0 min,  0.003 sec
 * total energy  :   -23.9875249 Eh     change       -0.6685027E-04 Eh
   gradient norm :     0.0024011 Eh/α   predicted    -0.4556136E-04 ( -31.85%)
   displ. norm   :     0.0676615 α      lambda       -0.6558702E-04
   maximum displ.:     0.0401497 α      in ANC's #2, #3, #5, ...

........................................................................
.............................. CYCLE   23 ..............................
........................................................................

 iter      E             dE          RMSdq      gap      omega  full diag
   1    -24.2320575 -0.242321E+02  0.377E-02    3.81       0.0  T
   2    -24.2320578 -0.319435E-06  0.220E-02    3.82       1.2  T
   3    -24.2320579 -0.245032E-07  0.259E-03    3.82      10.3  T
   4    -24.2320579 -0.309518E-07  0.105E-03    3.82      25.4  T
   5    -24.2320579 -0.409689E-08  0.419E-04    3.82      63.8  T
   6    -24.2320579 -0.167734E-09  0.172E-04    3.82     155.7  T
     SCC iter.                  ...        0 min,  0.041 sec
     gradient                   ...        0 min,  0.003 sec
 * total energy  :   -23.9875643 Eh     change       -0.3937028E-04 Eh
   gradient norm :     0.0014681 Eh/α   predicted    -0.3294250E-04 ( -16.33%)
   displ. norm   :     0.0760788 α      lambda       -0.1945238E-04
   maximum displ.:     0.0513535 α      in ANC's #2, #1, #4, ...

........................................................................
.............................. CYCLE   24 ..............................
........................................................................

 iter      E             dE          RMSdq      gap      omega  full diag
   1    -24.2320015 -0.242320E+02  0.383E-02    3.82       0.0  T
   2    -24.2320016 -0.148760E-06  0.225E-02    3.82       1.2  T
   3    -24.2320016 -0.681555E-08  0.214E-03    3.82      12.5  T
   4    -24.2320017 -0.392542E-07  0.876E-04    3.82      30.5  T
   5    -24.2320017 -0.123586E-08  0.338E-04    3.82      79.1  T
     SCC iter.                  ...        0 min,  0.040 sec
     gradient                   ...        0 min,  0.003 sec
 * total energy  :   -23.9875845 Eh     change       -0.2029158E-04 Eh
   gradient norm :     0.0017891 Eh/α   predicted    -0.9751973E-05 ( -51.94%)
   displ. norm   :     0.0809587 α      lambda       -0.2061728E-04
   maximum displ.:     0.0586796 α      in ANC's #2, #4, #1, ...

........................................................................
.............................. CYCLE   25 ..............................
........................................................................

 iter      E             dE          RMSdq      gap      omega  full diag
   1    -24.2321645 -0.242322E+02  0.436E-02    3.82       0.0  T
   2    -24.2321646 -0.108247E-06  0.258E-02    3.82       1.0  T
   3    -24.2321647 -0.193841E-07  0.161E-03    3.82      16.6  T
   4    -24.2321647 -0.164101E-07  0.737E-04    3.82      36.3  T
   5    -24.2321647 -0.505182E-09  0.339E-04    3.82      78.9  T
     SCC iter.                  ...        0 min,  0.005 sec
     gradient                   ...        0 min,  0.003 sec
 * total energy  :   -23.9876059 Eh     change       -0.2137775E-04 Eh
   gradient norm :     0.0010555 Eh/α   predicted    -0.1033741E-04 ( -51.64%)
   displ. norm   :     0.0974754 α      lambda       -0.1734130E-04
   maximum displ.:     0.0796689 α      in ANC's #2, #4, #5, ...

........................................................................
.............................. CYCLE   26 ..............................
........................................................................

 iter      E             dE          RMSdq      gap      omega  full diag
   1    -24.2322380 -0.242322E+02  0.397E-02    3.82       0.0  T
   2    -24.2322382 -0.109829E-06  0.235E-02    3.82       1.1  T
   3    -24.2322382 -0.335131E-07  0.126E-03    3.82      21.2  T
   4    -24.2322382 -0.150527E-08  0.623E-04    3.82      42.9  T
   5    -24.2322382 -0.175593E-09  0.213E-04    3.82     125.4  T
     SCC iter.                  ...        0 min,  0.064 sec
     gradient                   ...        0 min,  0.003 sec
 * total energy  :   -23.9876254 Eh     change       -0.1946093E-04 Eh
   gradient norm :     0.0014222 Eh/α   predicted    -0.8706362E-05 ( -55.26%)
   displ. norm   :     0.1328000 α      lambda       -0.2177578E-04
   maximum displ.:     0.1063651 α      in ANC's #2, #4, #8, ...

........................................................................
.............................. CYCLE   27 ..............................
........................................................................

 iter      E             dE          RMSdq      gap      omega  full diag
   1    -24.2321218 -0.242321E+02  0.470E-02    3.82       0.0  T
   2    -24.2321219 -0.103693E-06  0.280E-02    3.82       1.0  T
   3    -24.2321219 -0.436990E-07  0.139E-03    3.82      19.3  T
   4    -24.2321219 -0.138328E-08  0.737E-04    3.82      36.3  T
   5    -24.2321219 -0.335639E-09  0.214E-04    3.82     124.9  T
     SCC iter.                  ...        0 min,  0.082 sec
     gradient                   ...        0 min,  0.003 sec
 * total energy  :   -23.9876500 Eh     change       -0.2457095E-04 Eh
   gradient norm :     0.0021685 Eh/α   predicted    -0.1097335E-04 ( -55.34%)
   displ. norm   :     0.1250425 α      lambda       -0.2986287E-04
   maximum displ.:     0.0936292 α      in ANC's #2, #1, #8, ...

........................................................................
.............................. CYCLE   28 ..............................
........................................................................

 iter      E             dE          RMSdq      gap      omega  full diag
   1    -24.2321345 -0.242321E+02  0.380E-02    3.82       0.0  T
   2    -24.2321346 -0.748113E-07  0.227E-02    3.82       1.2  T
   3    -24.2321347 -0.296454E-07  0.127E-03    3.82      21.1  T
   4    -24.2321347 -0.217542E-08  0.631E-04    3.82      42.4  T
   5    -24.2321347 -0.729766E-09  0.232E-04    3.82     115.4  T
     SCC iter.                  ...        0 min,  0.096 sec
     gradient                   ...        0 min,  0.003 sec
 * total energy  :   -23.9876733 Eh     change       -0.2335571E-04 Eh
   gradient norm :     0.0026529 Eh/α   predicted    -0.1516379E-04 ( -35.07%)
   displ. norm   :     0.1347409 α      lambda       -0.3592539E-04
   maximum displ.:     0.0929452 α      in ANC's #2, #1, #8, ...

........................................................................
.............................. CYCLE   29 ..............................
........................................................................

 iter      E             dE          RMSdq      gap      omega  full diag
   1    -24.2321871 -0.242322E+02  0.404E-02    3.83       0.0  T
   2    -24.2321872 -0.894734E-07  0.242E-02    3.83       1.1  T
   3    -24.2321872 -0.374048E-07  0.143E-03    3.83      18.6  T
   4    -24.2321872 -0.389564E-08  0.779E-04    3.83      34.3  T
   5    -24.2321872 -0.609624E-09  0.221E-04    3.83     120.7  T
     SCC iter.                  ...        0 min,  0.037 sec
     gradient                   ...        0 min,  0.002 sec
 * total energy  :   -23.9877011 Eh     change       -0.2776016E-04 Eh
   gradient norm :     0.0024735 Eh/α   predicted    -0.1828910E-04 ( -34.12%)
   displ. norm   :     0.1268730 α      lambda       -0.3957297E-04
   maximum displ.:     0.0791887 α      in ANC's #1, #2, #5, ...

........................................................................
.............................. CYCLE   30 ..............................
........................................................................

 iter      E             dE          RMSdq      gap      omega  full diag
   1    -24.2325184 -0.242325E+02  0.404E-02    3.83       0.0  T
   2    -24.2325185 -0.132581E-06  0.241E-02    3.83       1.1  T
   3    -24.2325186 -0.468502E-07  0.159E-03    3.83      16.8  T
   4    -24.2325186 -0.373485E-08  0.880E-04    3.83      30.4  T
   5    -24.2325186 -0.381547E-09  0.310E-04    3.83      86.2  T
     SCC iter.                  ...        0 min,  0.113 sec
     gradient                   ...        0 min,  0.005 sec
 * total energy  :   -23.9877306 Eh     change       -0.2953788E-04 Eh
   gradient norm :     0.0016490 Eh/α   predicted    -0.2010541E-04 ( -31.93%)
   displ. norm   :     0.3080635 α      lambda       -0.3693981E-04
   maximum displ.:     0.1963221 α      in ANC's #2, #1, #5, ...

........................................................................
.............................. CYCLE   31 ..............................
........................................................................

 iter      E             dE          RMSdq      gap      omega  full diag
   1    -24.2300220 -0.242300E+02  0.966E-02    3.83       0.0  T
   2    -24.2300243 -0.225389E-05  0.572E-02    3.83       1.0  T
   3    -24.2300245 -0.165453E-06  0.724E-03    3.83       3.7  T
   4    -24.2300247 -0.221490E-06  0.275E-03    3.83       9.7  T
   5    -24.2300247 -0.125238E-07  0.141E-03    3.83      18.9  T
   6    -24.2300247 -0.148289E-08  0.328E-04    3.83      81.6  T
   7    -24.2300247 -0.159506E-09  0.939E-05    3.83     284.7  T
     SCC iter.                  ...        0 min,  0.103 sec
     gradient                   ...        0 min,  0.002 sec
 * total energy  :   -23.9877018 Eh     change        0.2880727E-04 Eh
   gradient norm :     0.0074636 Eh/α   predicted    -0.1924918E-04 (-166.82%)
   displ. norm   :     0.0792275 α      lambda       -0.1351794E-03
   maximum displ.:     0.0650915 α      in ANC's #2, #4, #3, ...

........................................................................
.............................. CYCLE   32 ..............................
........................................................................

 iter      E             dE          RMSdq      gap      omega  full diag
   1    -24.2323246 -0.242323E+02  0.420E-02    3.83       0.0  T
   2    -24.2323259 -0.129145E-05  0.238E-02    3.83       1.1  T
   3    -24.2323259 -0.772671E-07  0.547E-03    3.83       4.9  T
   4    -24.2323260 -0.227917E-07  0.145E-03    3.83      18.4  T
   5    -24.2323260 -0.253107E-08  0.747E-04    3.83      35.8  T
   6    -24.2323260 -0.852697E-09  0.177E-04    3.83     150.7  T
     SCC iter.                  ...        0 min,  0.072 sec
     gradient                   ...        0 min,  0.002 sec
 * total energy  :   -23.9877685 Eh     change       -0.6668512E-04 Eh
   gradient norm :     0.0018586 Eh/α   predicted    -0.6801500E-04 (   1.99%)
   displ. norm   :     0.0327253 α      lambda       -0.6497053E-05
   maximum displ.:     0.0186552 α      in ANC's #2, #8, #5, ...

........................................................................
.............................. CYCLE   33 ..............................
........................................................................

 iter      E             dE          RMSdq      gap      omega  full diag
   1    -24.2325744 -0.242326E+02  0.141E-02    3.83       0.0  T
   2    -24.2325745 -0.574263E-07  0.832E-03    3.83       3.2  T
   3    -24.2325745 -0.161466E-08  0.128E-03    3.83      20.8  T
   4    -24.2325745 -0.888207E-08  0.429E-04    3.83      62.3  T
   5    -24.2325745 -0.365695E-09  0.191E-04    3.83     139.8  T
     SCC iter.                  ...        0 min,  0.045 sec
     gradient                   ...        0 min,  0.002 sec
 * total energy  :   -23.9877759 Eh     change       -0.7418802E-05 Eh
   gradient norm :     0.0007720 Eh/α   predicted    -0.3251300E-05 ( -56.17%)
   displ. norm   :     0.1071378 α      lambda       -0.8230654E-05
   maximum displ.:     0.0621525 α      in ANC's #2, #1, #8, ...

........................................................................
.............................. CYCLE   34 ..............................
........................................................................

 iter      E             dE          RMSdq      gap      omega  full diag
   1    -24.2324349 -0.242324E+02  0.364E-02    3.83       0.0  T
   2    -24.2324350 -0.118053E-06  0.217E-02    3.83       1.2  T
   3    -24.2324351 -0.447487E-07  0.169E-03    3.83      15.8  T
   4    -24.2324351 -0.781502E-08  0.947E-04    3.83      28.2  T
   5    -24.2324351 -0.756582E-09  0.291E-04    3.83      91.9  T
     SCC iter.                  ...        0 min,  0.006 sec
     gradient                   ...        0 min,  0.002 sec
 * total energy  :   -23.9877825 Eh     change       -0.6580199E-05 Eh
   gradient norm :     0.0009867 Eh/α   predicted    -0.4135260E-05 ( -37.16%)
   displ. norm   :     0.0254607 α      lambda       -0.1840747E-05
   maximum displ.:     0.0159418 α      in ANC's #2, #5, #8, ...

........................................................................
.............................. CYCLE   35 ..............................
........................................................................

 iter      E             dE          RMSdq      gap      omega  full diag
   1    -24.2326115 -0.242326E+02  0.915E-03    3.83       0.0  T
   2    -24.2326115 -0.183066E-07  0.542E-03    3.83       4.9  T
   3    -24.2326115 -0.345212E-08  0.543E-04    3.83      49.2  T
   4    -24.2326115 -0.498158E-09  0.259E-04    3.83     103.0  T
     SCC iter.                  ...        0 min,  0.002 sec
     gradient                   ...        0 min,  0.002 sec
 * total energy  :   -23.9877843 Eh     change       -0.1850549E-05 Eh
   gradient norm :     0.0004615 Eh/α   predicted    -0.9215007E-06 ( -50.20%)
   displ. norm   :     0.0486166 α      lambda       -0.1454877E-05
   maximum displ.:     0.0329847 α      in ANC's #2, #5, #8, ...

   *** GEOMETRY OPTIMIZATION CONVERGED AFTER 35 ITERATIONS ***

------------------------------------------------------------------------
 total energy gain   :        -0.1982656 Eh     -124.4136 kcal/mol
 total RMSD          :         1.1935563 a0        0.6316 Å
 total power (kW/mol):       -14.8727524 (step) -112.1036 (real)
------------------------------------------------------------------------

 ANCopt (total)                0 d,  0 h,  0 min,  4.643 sec
 optimizer setup                ...        0 min,  0.000 sec (  0.001%)
 model hessian                  ...        0 min,  0.001 sec (  0.030%)
 ANC generation                 ...        0 min,  0.010 sec (  0.218%)
 coordinate transformation      ...        0 min,  0.000 sec (  0.004%)
 single point calculation       ...        0 min,  4.608 sec ( 99.229%)
 optimization log               ...        0 min,  0.005 sec (  0.101%)
 hessian update                 ...        0 min,  0.012 sec (  0.258%)
 rational function              ...        0 min,  0.003 sec (  0.062%)

================
 final structure:
================
14
 xtb: 6.7.1 (edcfbbe)
O           -0.11607041894924        0.66203321650064        0.03158021482398
O            1.02058595997160       -1.28849985655167       -0.14917111915266
O           -1.57563175241299       -1.07289821623493       -0.12411073474977
C            1.07900601299502       -0.09702932487021       -0.03725120928476
C           -1.31987749601436        0.15525806133257       -0.01775319226968
C            2.23778227722408        0.79060549529748        0.04589876903604
C           -2.41366032127768        1.11746333530338        0.05209067856849
H            3.15744274892860        0.21393503845402        0.05302178027508
H            2.16336966920464        1.40995854726703        0.93880418800234
H            2.23077036012056        1.47505058753948       -0.80313460945371
H           -2.21380570399557        1.87283303201768        0.81058586850716
H           -3.35840047490046        0.61022790025102        0.22289937381838
H           -2.47017655194939        1.66163609593296       -0.89458348660321
H           -0.80291530904458       -1.70207891223911       -0.18572652141785

 Bond Distances (Angstroems)
 ---------------------------
O1-C4=1.4174         O1-C5=1.3071         O2-C4=1.1981         O3-C5=1.2590         O3-H14=0.9984        C4-O1=1.4174         
C4-O2=1.1981         C4-C6=1.4620         C5-O1=1.3071         C5-O3=1.2590         C5-C7=1.4585         C6-C4=1.4620         
C6-H8=1.0855         C6-H9=1.0892         C6-H10=1.0906        C7-C5=1.4585         C7-H11=1.0890        C7-H12=1.0858        
C7-H13=1.0934        H8-C6=1.0855         H9-C6=1.0892         H10-C6=1.0906        H11-C7=1.0890        H12-C7=1.0858        
H13-C7=1.0934        H14-O3=0.9984        
 C  H  Rav=1.0889 sigma=0.0027  Rmin=1.0855  Rmax=1.0934     6
 C  C  Rav=1.4602 sigma=0.0018  Rmin=1.4585  Rmax=1.4620     2
 O  H  Rav=0.9984 sigma=0.0000  Rmin=0.9984  Rmax=0.9984     1
 O  C  Rav=1.2954 sigma=0.0803  Rmin=1.1981  Rmax=1.4174     4

 selected bond angles (degree)
 --------------------
C5-O1-C4=124.55                H14-O3-C5=117.56               O2-C4-O1=119.73                C6-C4-O1=109.90                
C6-C4-O2=130.37                O3-C5-O1=124.65                C7-C5-O1=115.67                C7-C5-O3=119.69                
H8-C6-C4=110.45                H9-C6-C4=109.74                H9-C6-H8=110.77                H10-C6-C4=109.37               
H10-C6-H8=110.12               H10-C6-H9=106.31               H11-C7-C5=110.69               H12-C7-C5=110.60               
H12-C7-H11=111.97              H13-C7-C5=109.01               H13-C7-H11=105.50              H13-C7-H12=108.89              

 selected dihedral angles (degree)
 ---------------------------------
O2-C4-O1-C5=  0.03            C6-C4-O1-C5=179.93            O3-C5-O1-C4=  0.48            C7-C5-O1-C4=180.79            
O1-C5-O3-H14=359.25           C7-C5-O3-H14=178.93           H8-C6-C4-O1=176.67            H8-C6-C4-O2=356.55            
H9-C6-C4-O1= 54.27            H9-C6-C4-O2=234.15            H10-C6-C4-O1=298.01           H10-C6-C4-O2=117.89           
H11-C7-C5-O1=317.06           H11-C7-C5-O3=137.35           H12-C7-C5-O1=192.36           H12-C7-C5-O3= 12.66           
H13-C7-C5-O1= 72.68           H13-C7-C5-O3=252.97           
           -------------------------------------------------
          |                Final Singlepoint                |
           -------------------------------------------------

          ...................................................
          :                      SETUP                      :
          :.................................................:
          :  # basis functions                  35          :
          :  # atomic orbitals                  35          :
          :  # shells                           21          :
          :  # electrons                        40          :
          :  max. iterations                   250          :
          :  Hamiltonian                  GFN2-xTB          :
          :  restarted?                      false          :
          :  GBSA solvation                   true          :
          :  PC potential                    false          :
          :  electronic temp.          300.0000000     K    :
          :  accuracy                    1.0000000          :
          :  -> integral cutoff          0.2500000E+02      :
          :  -> integral neglect         0.1000000E-07      :
          :  -> SCF convergence          0.1000000E-05 Eh   :
          :  -> wf. convergence          0.1000000E-03 e    :
          :  Broyden damping             0.4000000          :
          :  net charge                          1          :
          :  unpaired electrons                  0          :
          ...................................................

 iter      E             dE          RMSdq      gap      omega  full diag
   1    -24.2326115 -0.242326E+02  0.119E-04    3.83       0.0  T
   2    -24.2326115 -0.255547E-10  0.723E-05    3.83     369.8  T
   3    -24.2326115 -0.352784E-11  0.401E-05    3.83     665.8  T

   *** convergence criteria satisfied after 3 iterations ***

         #    Occupation            Energy/Eh            Energy/eV
      -------------------------------------------------------------
         1        2.0000           -0.8277577             -22.5244
       ...           ...                  ...                  ...
        14        2.0000           -0.5498811             -14.9630
        15        2.0000           -0.5397592             -14.6876
        16        2.0000           -0.5036529             -13.7051
        17        2.0000           -0.5027662             -13.6810
        18        2.0000           -0.4958664             -13.4932
        19        2.0000           -0.4932544             -13.4221
        20        2.0000           -0.4764854             -12.9658 (HOMO)
        21                         -0.3357407              -9.1360 (LUMO)
        22                         -0.2729397              -7.4271
        23                         -0.0434756              -1.1830
        24                          0.0353130               0.9609
        25                          0.1480148               4.0277
       ...                                ...                  ...
        35                          0.6236119              16.9693
      -------------------------------------------------------------
                  HL-Gap            0.1407448 Eh            3.8299 eV
             Fermi-level           -0.4061130 Eh          -11.0509 eV

 SCC (total)                   0 d,  0 h,  0 min,  0.005 sec
 SCC setup                      ...        0 min,  0.000 sec (  5.333%)
 Dispersion                     ...        0 min,  0.000 sec (  2.676%)
 classical contributions        ...        0 min,  0.000 sec (  1.149%)
 integral evaluation            ...        0 min,  0.001 sec ( 16.656%)
 iterations                     ...        0 min,  0.001 sec ( 29.259%)
 molecular gradient             ...        0 min,  0.002 sec ( 42.448%)
 printout                       ...        0 min,  0.000 sec (  2.298%)

         :::::::::::::::::::::::::::::::::::::::::::::::::::::
         ::                     SUMMARY                     ::
         :::::::::::::::::::::::::::::::::::::::::::::::::::::
         :: total energy             -23.987784338868 Eh    ::
         :: total w/o Gsasa/hb       -23.978625651528 Eh    ::
         :: gradient norm              0.000461670598 Eh/a0 ::
         :: HOMO-LUMO gap              3.829859796985 eV    ::
         ::.................................................::
         :: SCC energy               -24.232599765227 Eh    ::
         :: -> isotropic ES            0.153792109814 Eh    ::
         :: -> anisotropic ES         -0.009446126183 Eh    ::
         :: -> anisotropic XC          0.003283339237 Eh    ::
         :: -> dispersion             -0.006500362479 Eh    ::
         :: -> Gsolv                  -0.097324020121 Eh    ::
         ::    -> Gelec               -0.088165332782 Eh    ::
         ::    -> Gsasa                0.002499127444 Eh    ::
         ::    -> Ghb                 -0.012738574482 Eh    ::
         ::    -> Gshift               0.001080759698 Eh    ::
         :: repulsion energy           0.244815426359 Eh    ::
         :: add. restraining           0.000000000000 Eh    ::
         :: total charge               1.000000000000 e     ::
         :::::::::::::::::::::::::::::::::::::::::::::::::::::

           -------------------------------------------------
          |                Property Printout                |
           -------------------------------------------------

    * Orbital Energies and Occupations

         #    Occupation            Energy/Eh            Energy/eV
      -------------------------------------------------------------
         1        2.0000           -0.8277577             -22.5244
       ...           ...                  ...                  ...
         8        2.0000           -0.6619782             -18.0133
         9        2.0000           -0.6317839             -17.1917
        10        2.0000           -0.6132835             -16.6883
        11        2.0000           -0.6106678             -16.6171
        12        2.0000           -0.5733158             -15.6007
        13        2.0000           -0.5524593             -15.0332
        14        2.0000           -0.5498811             -14.9630
        15        2.0000           -0.5397592             -14.6876
        16        2.0000           -0.5036529             -13.7051
        17        2.0000           -0.5027662             -13.6810
        18        2.0000           -0.4958664             -13.4932
        19        2.0000           -0.4932544             -13.4221
        20        2.0000           -0.4764854             -12.9658 (HOMO)
        21                         -0.3357407              -9.1360 (LUMO)
        22                         -0.2729397              -7.4271
        23                         -0.0434756              -1.1830
        24                          0.0353130               0.9609
        25                          0.1480148               4.0277
        26                          0.1544402               4.2025
        27                          0.1652414               4.4964
        28                          0.1726336               4.6976
        29                          0.1887819               5.1370
        30                          0.1993137               5.4236
        31                          0.2008021               5.4641
       ...                                ...                  ...
        35                          0.6236119              16.9693
      -------------------------------------------------------------
                  HL-Gap            0.1407448 Eh            3.8299 eV
             Fermi-level           -0.4061130 Eh          -11.0509 eV

     #   Z          covCN         q      C6AA      α(0)
     1   8 O        1.707    -0.189    17.158     5.593
     2   8 O        0.856    -0.380    21.291     6.186
     3   8 O        1.656    -0.257    18.276     5.771
     4   6 C        2.698     0.379    20.579     7.425
     5   6 C        2.703     0.395    20.321     7.378
     6   6 C        3.754    -0.197    24.436     7.049
     7   6 C        3.756    -0.206    24.634     7.077
     8   1 H        0.925     0.126     1.568     1.958
     9   1 H        0.925     0.161     1.321     1.797
    10   1 H        0.924     0.165     1.293     1.778
    11   1 H        0.925     0.182     1.193     1.708
    12   1 H        0.925     0.160     1.329     1.803
    13   1 H        0.924     0.205     1.073     1.620
    14   1 H        0.800     0.456     0.394     0.987

 Mol. C6AA /au·bohr⁶  :       1544.823414
 Mol. C8AA /au·bohr⁸  :      34519.642889
 Mol. α(0) /au        :         58.129482


Wiberg/Mayer (AO) data.
largest (>0.10) Wiberg bond orders for each atom

 ---------------------------------------------------------------------------
     #   Z sym  total        # sym  WBO       # sym  WBO       # sym  WBO
 ---------------------------------------------------------------------------
     1   8 O    2.452 --     5 C    1.223     4 C    0.926     3 O    0.117
                             2 O    0.104
     2   8 O    2.111 --     4 C    1.796     1 O    0.104
     3   8 O    2.406 --     5 C    1.445    14 H    0.726     1 O    0.117
     4   6 C    3.882 --     2 O    1.796     6 C    1.073     1 O    0.926
     5   6 C    3.867 --     3 O    1.445     1 O    1.223     7 C    1.095
     6   6 C    3.964 --     4 C    1.073     8 H    0.965     9 H    0.915
                            10 H    0.906
     7   6 C    3.938 --     5 C    1.095    12 H    0.954    11 H    0.912
                            13 H    0.868
     8   1 H    0.983 --     6 C    0.965
     9   1 H    0.974 --     6 C    0.915
    10   1 H    0.973 --     6 C    0.906
    11   1 H    0.967 --     7 C    0.912
    12   1 H    0.974 --     7 C    0.954
    13   1 H    0.958 --     7 C    0.868
    14   1 H    0.792 --     3 O    0.726
 ---------------------------------------------------------------------------

Topologies differ in total number of bonds
Writing topology from bond orders to xtbtopo.mol

molecular dipole:
                 x           y           z       tot (Debye)
 q only:       -1.353       1.474      -0.034
   full:       -1.158       1.393      -0.052       4.607
molecular quadrupole (traceless):
                xx          xy          yy          xz          yz          zz
 q only:       13.402      -0.082      -3.083       0.719       0.141     -10.319
  q+dip:       10.925       0.154      -3.383       0.773      -0.175      -7.541
   full:       10.624       0.020      -4.114       0.755      -0.333      -6.510

           -------------------------------------------------
          |                Geometry Summary                 |
           -------------------------------------------------

      molecular mass/u    :      103.0967436
   center of mass at/Å    :       -0.1653488       0.0195294      -0.0311145
  moments of inertia/u·Å² :        0.9162215E+02   0.2655365E+03   0.3510544E+03
rotational constants/cm⁻¹ :        0.1839908E+00   0.6348518E-01   0.4802000E-01

 * 12 selected distances

     #   Z          #   Z                                           value/Å
     2   8 O        4   6 C                                       1.1981408
     1   8 O        5   6 C                                       1.3070603
     3   8 O        5   6 C                                       1.2590037
     4   6 C        6   6 C                                       1.4620439 (max)
     5   6 C        7   6 C                                       1.4584507
     6   6 C        8   1 H                                       1.0855299
     6   6 C        9   1 H                                       1.0892271
     6   6 C       10   1 H                                       1.0905834
     7   6 C       11   1 H                                       1.0889630
     7   6 C       12   1 H                                       1.0858165
     7   6 C       13   1 H                                       1.0933939
     3   8 O       14   1 H                                       0.9983766 (min)

 * 4 distinct bonds (by element types)

   Z      Z             #   av. dist./Å        max./Å        min./Å
   1 H    6 C           6     1.0889190     1.0933939     1.0855299
   6 C    6 C           2     1.4602473     1.4620439     1.4584507
   1 H    8 O           1     0.9983766     0.9983766     0.9983766
   6 C    8 O           3     1.2547349     1.3070603     1.1981408


optimized geometry written to: xtbopt.xyz


           -------------------------------------------------
          | TOTAL ENERGY              -23.987784338868 Eh   |
          | GRADIENT NORM               0.000461670598 Eh/α |
          | HOMO-LUMO GAP               3.829859796985 eV   |
           -------------------------------------------------

------------------------------------------------------------------------
 * finished run on 2026/06/08 at 23:18:52.174     
------------------------------------------------------------------------
 total:
 * wall-time:     0 d,  0 h,  0 min,  4.894 sec
 *  cpu-time:     0 d,  0 h,  1 min,  3.955 sec
 * ratio c/w:    13.069 speedup
 SCF:
 * wall-time:     0 d,  0 h,  0 min,  0.202 sec
 *  cpu-time:     0 d,  0 h,  0 min,  2.685 sec
 * ratio c/w:    13.308 speedup
 ANC optimizer:
 * wall-time:     0 d,  0 h,  0 min,  4.649 sec
 *  cpu-time:     0 d,  0 h,  1 min,  0.791 sec
 * ratio c/w:    13.076 speedup

