      -----------------------------------------------------------      
     |                   =====================                   |     
     |                           x T B                           |     
     |                   =====================                   |     
     |                         S. Grimme                         |     
     |          Mulliken Center for Theoretical Chemistry        |     
     |                    University of Bonn                     |     
      -----------------------------------------------------------      

   * xtb version 6.7.1 (edcfbbe) compiled by 'conda@c0858423619e' on 2025-09-04

   xtb is free software: you can redistribute it and/or modify it under
   the terms of the GNU Lesser General Public License as published by
   the Free Software Foundation, either version 3 of the License, or
   (at your option) any later version.
   
   xtb is distributed in the hope that it will be useful,
   but WITHOUT ANY WARRANTY; without even the implied warranty of
   MERCHANTABILITY or FITNESS FOR A PARTICULAR PURPOSE.  See the
   GNU Lesser General Public License for more details.
   
   Cite this work as:
   * C. Bannwarth, E. Caldeweyher, S. Ehlert, A. Hansen, P. Pracht,
     J. Seibert, S. Spicher, S. Grimme, WIREs Comput. Mol. Sci., 2020, 11,
     e01493. DOI: 10.1002/wcms.1493
   
   for GFN2-xTB:
   * C. Bannwarth, S. Ehlert and S. Grimme., J. Chem. Theory Comput., 2019,
     15, 1652-1671. DOI: 10.1021/acs.jctc.8b01176
   for GFN1-xTB:
   * S. Grimme, C. Bannwarth, P. Shushkov, J. Chem. Theory Comput., 2017,
     13, 1989-2009. DOI: 10.1021/acs.jctc.7b00118
   for GFN0-xTB:
   * P. Pracht, E. Caldeweyher, S. Ehlert, S. Grimme, ChemRxiv, 2019, preprint.
     DOI: 10.26434/chemrxiv.8326202.v1
   for GFN-FF:
   * S. Spicher and S. Grimme, Angew. Chem. Int. Ed., 2020, 59, 15665-15673.
     DOI: 10.1002/anie.202004239
   
   for ALPB and GBSA implicit solvation:
   * S. Ehlert, M. Stahn, S. Spicher, S. Grimme, J. Chem. Theory Comput.,
     2021, 17, 4250-4261. DOI: 10.1021/acs.jctc.1c00471
   
   for ddCOSMO and CPCM-X implicit solvation:
   * M. Stahn, S. Ehlert, S. Grimme, J. Phys. Chem. A,
     2023, XX, XXXX-XXXX. DOI: 10.1021/acs.jpca.3c04382
   
   for DFT-D4:
   * E. Caldeweyher, C. Bannwarth and S. Grimme, J. Chem. Phys., 2017,
     147, 034112. DOI: 10.1063/1.4993215
   * E. Caldeweyher, S. Ehlert, A. Hansen, H. Neugebauer, S. Spicher,
     C. Bannwarth and S. Grimme, J. Chem. Phys., 2019, 150, 154122.
     DOI: 10.1063/1.5090222
   * E. Caldeweyher, J.-M. Mewes, S. Ehlert and S. Grimme, Phys. Chem. Chem. Phys.
     2020, 22, 8499-8512. DOI: 10.1039/D0CP00502A
   
   for sTDA-xTB:
   * S. Grimme and C. Bannwarth, J. Chem. Phys., 2016, 145, 054103.
     DOI: 10.1063/1.4959605
   
   in the mass-spec context:
   * V. Asgeirsson, C. Bauer and S. Grimme, Chem. Sci., 2017, 8, 4879.
     DOI: 10.1039/c7sc00601b
   * J. Koopman and S. Grimme, ACS Omega 2019, 4, 12, 15120-15133.
     DOI: 10.1021/acsomega.9b02011
   
   for metadynamics refer to:
   * S. Grimme, J. Chem. Theory Comput., 2019, 155, 2847-2862
     DOI: 10.1021/acs.jctc.9b00143
   
   for SPH calculations refer to:
   * S. Spicher and S. Grimme, J. Chem. Theory Comput., 2021, 17, 1701-1714
     DOI: 10.1021/acs.jctc.0c01306
   
   for ONIOM refer to:
   * C. Plett, A. Katbashev, S. Ehlert, S. Grimme, M. Bursch,
     Phys. Chem. Chem. Phys., 2023, 25, 17860-17868. DOI: 10.1039/D3CP02178E
   
   for DIPRO refer to:
   * J. Kohn, N. Gildemeister, S. Grimme, D. Fazzi, A. Hansen,
     J. Chem. Phys., 2023, just accepted.
   
   for PTB refer to:
   * S. Grimme, M. Mueller, A. Hansen, J. Chem. Phys., 2023, 158, 124111.
     DOI: 10.1063/5.0137838
   
   with help from (in alphabetical order)
   P. Atkinson, C. Bannwarth, F. Bohle, G. Brandenburg, E. Caldeweyher
   M. Checinski, S. Dohm, S. Ehlert, S. Ehrlich, I. Gerasimov, C. Hölzer
   A. Katbashev, J. Kohn, J. Koopman, C. Lavigne, S. Lehtola, F. März, M. Müller,
   F. Musil, H. Neugebauer, J. Pisarek, C. Plett, P. Pracht, F. Pultar,
   J. Seibert, P. Shushkov, S. Spicher, M. Stahn, M. Steiner, T. Strunk,
   J. Stückrath, T. Rose, and J. Unsleber
   
 * started run on 2026/06/09 at 00:48:36.756     
   ID    Z sym.   atoms
    1    8 O      1-3, 15
    2    6 C      4-7, 17-22
    3    1 H      8-14, 23-29
    4    7 N      16

           -------------------------------------------------
          |                Calculation Setup                |
           -------------------------------------------------

          program call               : xtb xtbopt.xyz --hess --alpb water
          hostname                   : fedora
          coordinate file            : xtbopt.xyz
          omp threads                :                    16


molecular fragmentation (1/2 indicates fragments):
12121212221111111111111111111
# atoms in fragment 1/2:    23     6
 fragment masses (1/2) :      169.18       43.04
CMA distance (Bohr)    :   8.068
constraining FC (au)   :  0.0500

           -------------------------------------------------
          |                 G F N 2 - x T B                 |
           -------------------------------------------------

        Reference                      10.1021/acs.jctc.8b01176
      * Hamiltonian:
        H0-scaling (s, p, d)           1.850000    2.230000    2.230000
        zeta-weighting                 0.500000
      * Dispersion:
        s8                             2.700000
        a1                             0.520000
        a2                             5.000000
        s9                             5.000000
      * Repulsion:
        kExp                           1.500000    1.000000
        rExp                           1.000000
      * Coulomb:
        alpha                          2.000000
        third order                    shell-resolved
        anisotropic                    true
        a3                             3.000000
        a5                             4.000000
        cn-shift                       1.200000
        cn-exp                         4.000000
        max-rad                        5.000000

      * Solvation model:               ALPB
        Solvent                        water
        Parameter file                 internal GFN2-xTB/ALPB
        Dielectric constant                8.0200E+01
        Reference state                gsolv [1 M gas/solution]
        Free energy shift                  1.0808E-03 Eh       6.7819E-01 kcal/mol
        Temperature                        2.9815E+02 K
        Density                            1.0000E+00 kg/L
        Solvent mass                       1.8000E+01 g/mol
        Interaction kernel             P16
        Born radius scaling (c1)           1.4744E+00
        Born radii integrator          GBOBC
        Born offset                        0.0000E+00 a0       0.0000E+00 AA
        H-bond correction              true
        Ion screening                  false
        Surface tension                    1.0000E-05 Eh       1.5569E+01 dyn/cm
        Grid points                               230 per atom

          ...................................................
          :                      SETUP                      :
          :.................................................:
          :  # basis functions                  74          :
          :  # atomic orbitals                  74          :
          :  # shells                           44          :
          :  # electrons                        83          :
          :  max. iterations                   250          :
          :  Hamiltonian                  GFN2-xTB          :
          :  restarted?                      false          :
          :  GBSA solvation                   true          :
          :  PC potential                    false          :
          :  electronic temp.          300.0000000     K    :
          :  accuracy                    1.0000000          :
          :  -> integral cutoff          0.2500000E+02      :
          :  -> integral neglect         0.1000000E-07      :
          :  -> SCF convergence          0.1000000E-05 Eh   :
          :  -> wf. convergence          0.1000000E-03 e    :
          :  Broyden damping             0.4000000          :
          :  net charge                          0          :
          :  unpaired electrons                  0          :
          ...................................................

 iter      E             dE          RMSdq      gap      omega  full diag
   1    -48.1987306 -0.481987E+02  0.425E+00    1.45       0.0  T
   2    -48.2400854 -0.413548E-01  0.233E+00    1.42       1.0  T
   3    -48.2382556  0.182977E-02  0.105E+00    1.50       1.0  T
   4    -48.2464379 -0.818228E-02  0.172E-01    1.39       1.0  T
   5    -48.2466259 -0.187972E-03  0.788E-02    1.41       1.0  T
   6    -48.2466633 -0.374308E-04  0.268E-02    1.41       1.0  T
   7    -48.2466661 -0.276757E-05  0.130E-02    1.41       1.4  T
   8    -48.2466670 -0.921240E-06  0.429E-03    1.41       4.3  T
   9    -48.2466671 -0.129178E-06  0.190E-03    1.41       9.8  T
  10    -48.2466671 -0.224799E-07  0.924E-04    1.41      20.1  T
  11    -48.2466671 -0.176154E-08  0.372E-04    1.41      49.9  T

   *** convergence criteria satisfied after 11 iterations ***

         #    Occupation            Energy/Eh            Energy/eV
      -------------------------------------------------------------
         1        2.0000           -0.7338155             -19.9681
       ...           ...                  ...                  ...
        36        2.0000           -0.4418670             -12.0238
        37        2.0000           -0.4363192             -11.8729
        38        2.0000           -0.4140994             -11.2682
        39        2.0000           -0.4093769             -11.1397
        40        2.0000           -0.3989228             -10.8552
        41        2.0000           -0.3499104              -9.5215
        42        1.0000           -0.3084377              -8.3930 (HOMO)
        43                         -0.2565665              -6.9815 (LUMO)
        44                         -0.2172515              -5.9117
        45                         -0.1977667              -5.3815
        46                         -0.0804388              -2.1889
        47                          0.0286737               0.7803
       ...                                ...                  ...
        74                          0.6703444              18.2410
      -------------------------------------------------------------
                  HL-Gap            0.0518711 Eh            1.4115 eV
             Fermi-level           -0.3058381 Eh           -8.3223 eV

 SCC (total)                   0 d,  0 h,  0 min,  0.643 sec
 SCC setup                      ...        0 min,  0.002 sec (  0.265%)
 Dispersion                     ...        0 min,  0.001 sec (  0.139%)
 classical contributions        ...        0 min,  0.000 sec (  0.047%)
 integral evaluation            ...        0 min,  0.004 sec (  0.599%)
 iterations                     ...        0 min,  0.615 sec ( 95.665%)
 molecular gradient             ...        0 min,  0.021 sec (  3.203%)
 printout                       ...        0 min,  0.000 sec (  0.075%)

         :::::::::::::::::::::::::::::::::::::::::::::::::::::
         ::                     SUMMARY                     ::
         :::::::::::::::::::::::::::::::::::::::::::::::::::::
         :: total energy             -47.679883766929 Eh    ::
         :: total w/o Gsasa/hb       -47.664921568510 Eh    ::
         :: gradient norm              0.000639408027 Eh/a0 ::
         :: HOMO-LUMO gap              1.411485824600 eV    ::
         ::.................................................::
         :: SCC energy               -48.246467172347 Eh    ::
         :: -> isotropic ES            0.127917925926 Eh    ::
         :: -> anisotropic ES         -0.004589741468 Eh    ::
         :: -> anisotropic XC          0.010961388847 Eh    ::
         :: -> dispersion             -0.025952041602 Eh    ::
         :: -> Gsolv                  -0.031513467895 Eh    ::
         ::    -> Gelec               -0.016551269475 Eh    ::
         ::    -> Gsasa                0.002398026424 Eh    ::
         ::    -> Ghb                 -0.018440984542 Eh    ::
         ::    -> Gshift               0.001080759698 Eh    ::
         :: repulsion energy           0.566583405417 Eh    ::
         :: add. restraining           0.000000000000 Eh    ::
         :: total charge               0.000000000000 e     ::
         :::::::::::::::::::::::::::::::::::::::::::::::::::::

           ------------------------------------------------- 
          |                Numerical Hessian                |
           ------------------------------------------------- 
step length          :   0.00500
SCC accuracy         :   0.30000
Hessian scale factor :   1.00000
frozen atoms in %    :   0.00000    0
RMS gradient         :   0.00064
estimated CPU  time      1.98 min
estimated wall time      0.15 min

writing file <hessian>.

 projected vibrational frequencies (cm⁻¹)
eigval :       -0.00    -0.00    -0.00    -0.00     0.00     0.00
eigval :       29.83    32.93    45.30    52.57    80.25   100.18
eigval :      109.91   128.36   142.33   176.17   186.98   218.61
eigval :      271.24   283.84   305.14   333.93   367.40   376.84
eigval :      392.85   399.52   406.66   424.37   438.47   499.97
eigval :      511.36   539.58   580.67   623.19   661.37   747.69
eigval :      799.93   824.02   858.17   868.91   886.06   896.76
eigval :      910.43   917.31   939.20   959.33   969.09  1009.23
eigval :     1038.81  1065.84  1088.23  1113.22  1117.83  1137.83
eigval :     1186.14  1204.89  1218.52  1267.50  1275.70  1304.33
eigval :     1322.35  1334.96  1375.52  1382.29  1388.01  1401.30
eigval :     1439.32  1460.66  1472.36  1486.66  1576.39  1616.38
eigval :     1815.16  2445.49  2957.31  3016.26  3036.09  3041.71
eigval :     3050.79  3062.31  3065.92  3080.76  3095.84  3109.67
eigval :     3458.08  3469.27  3478.26
           -------------------------------------------------
          |                Property Printout                |
           -------------------------------------------------

    * Orbital Energies and Occupations

         #    Occupation            Energy/Eh            Energy/eV
      -------------------------------------------------------------
         1        2.0000           -0.7338139             -19.9681
       ...           ...                  ...                  ...
        30        2.0000           -0.4733597             -12.8808
        31        2.0000           -0.4719080             -12.8413
        32        2.0000           -0.4696765             -12.7805
        33        2.0000           -0.4629938             -12.5987
        34        2.0000           -0.4574715             -12.4484
        35        2.0000           -0.4553858             -12.3917
        36        2.0000           -0.4418692             -12.0239
        37        2.0000           -0.4363212             -11.8729
        38        2.0000           -0.4141001             -11.2682
        39        2.0000           -0.4093773             -11.1397
        40        2.0000           -0.3989224             -10.8552
        41        2.0000           -0.3499116              -9.5216
        42        1.0000           -0.3084354              -8.3930 (HOMO)
        43                         -0.2565638              -6.9815 (LUMO)
        44                         -0.2172512              -5.9117
        45                         -0.1977680              -5.3815
        46                         -0.0804393              -2.1889
        47                          0.0286731               0.7802
        48                          0.0544672               1.4821
        49                          0.0756167               2.0576
        50                          0.0790278               2.1505
        51                          0.1139434               3.1006
        52                          0.1317535               3.5852
        53                          0.1458752               3.9695
       ...                                ...                  ...
        74                          0.6703439              18.2410
      -------------------------------------------------------------
                  HL-Gap            0.0518716 Eh            1.4115 eV
             Fermi-level           -0.3058366 Eh           -8.3222 eV

     #   Z          covCN         q      C6AA      α(0)
     1   8 O        1.658    -0.528    23.504     6.545
     2   8 O        0.856    -0.336    20.442     6.062
     3   8 O        1.657    -0.517    23.256     6.510
     4   6 C        1.848     0.158    27.335     8.446
     5   6 C        3.589     0.337    16.145     5.824
     6   6 C        3.752    -0.149    23.429     6.903
     7   6 C        3.752    -0.140    23.248     6.876
     8   1 H        0.925     0.133     1.514     1.924
     9   1 H        0.925     0.119     1.621     1.991
    10   1 H        0.924     0.095     1.830     2.115
    11   1 H        0.925     0.056     2.249     2.345
    12   1 H        0.925     0.052     2.295     2.369
    13   1 H        0.805     0.367     0.551     1.166
    14   1 H        0.804     0.376     0.532     1.146
    15   8 O        1.659    -0.470    22.262     6.369
    16   7 N        2.687    -0.267    26.905     7.704
    17   6 C        2.902     0.066    26.529     8.445
    18   6 C        2.926    -0.064    29.593     8.921
    19   6 C        2.922    -0.063    29.560     8.916
    20   6 C        2.845     0.129    25.160     8.221
    21   6 C        2.917    -0.076    29.896     8.966
    22   6 C        2.919    -0.064    29.586     8.920
    23   1 H        0.926     0.034     2.524     2.484
    24   1 H        0.926     0.048     2.348     2.396
    25   1 H        0.926     0.040     2.448     2.447
    26   1 H        0.926     0.043     2.404     2.425
    27   1 H        0.925     0.062     2.170     2.304
    28   1 H        0.870     0.186     1.176     1.698
    29   1 H        0.804     0.371     0.541     1.155

 Mol. C6AA /au·bohr⁶  :       8568.567897
 Mol. C8AA /au·bohr⁸  :     196937.736956
 Mol. α(0) /au        :        141.592561


Wiberg/Mayer (AO) data.
largest (>0.10) Wiberg bond orders for each atom

 ---------------------------------------------------------------------------
     #   Z sym  total        # sym  WBO       # sym  WBO       # sym  WBO
 ---------------------------------------------------------------------------
     1   8 O    1.922 --     5 C    0.967    29 H    0.844
     2   8 O    2.215 --     4 C    2.040
     3   8 O    1.944 --     5 C    0.984    14 H    0.839
     4   6 C    3.421 --     2 O    2.040     6 C    1.087    28 H    0.134
     5   6 C    3.926 --     3 O    0.984    16 N    0.976     7 C    0.972
                             1 O    0.967
     6   6 C    3.975 --     4 C    1.087    10 H    0.948     9 H    0.943
                             8 H    0.923
     7   6 C    3.992 --    12 H    0.985    27 H    0.982    11 H    0.980
                             5 C    0.972
     8   1 H    0.982 --     6 C    0.923
     9   1 H    0.986 --     6 C    0.943
    10   1 H    0.988 --     6 C    0.948
    11   1 H    0.997 --     7 C    0.980
    12   1 H    0.997 --     7 C    0.985
    13   1 H    0.866 --    15 O    0.846
    14   1 H    0.859 --     3 O    0.839
    15   8 O    2.048 --    20 C    1.055    13 H    0.846
    16   7 N    3.242 --    17 C    1.120     5 C    0.976    28 H    0.797
    17   6 C    3.972 --    18 C    1.353    19 C    1.346    16 N    1.120
    18   6 C    3.987 --    21 C    1.458    17 C    1.353    23 H    0.966
                            22 C    0.104
    19   6 C    3.987 --    22 C    1.464    17 C    1.346    24 H    0.965
                            21 C    0.102
    20   6 C    3.933 --    21 C    1.370    22 C    1.364    15 O    1.055
    21   6 C    3.987 --    18 C    1.458    20 C    1.370    25 H    0.966
                            19 C    0.102
    22   6 C    3.988 --    19 C    1.464    20 C    1.364    26 H    0.968
                            18 C    0.104
    23   1 H    0.999 --    18 C    0.966
    24   1 H    0.998 --    19 C    0.965
    25   1 H    0.998 --    21 C    0.966
    26   1 H    0.997 --    22 C    0.968
    27   1 H    0.996 --     7 C    0.982
    28   1 H    0.965 --    16 N    0.797     4 C    0.134
    29   1 H    0.862 --     1 O    0.844
 ---------------------------------------------------------------------------

Topologies differ in total number of bonds
Writing topology from bond orders to xtbtopo.mol

molecular dipole:
                 x           y           z       tot (Debye)
 q only:       -0.515      -1.733      -0.156
   full:       -0.232      -1.876      -0.211       4.835
molecular quadrupole (traceless):
                xx          xy          yy          xz          yz          zz
 q only:       -3.022     -20.663     -28.257       6.347       2.364      31.280
  q+dip:        1.364     -19.721     -35.429       7.210       1.475      34.065
   full:        1.661     -18.730     -36.061       6.610       1.317      34.399

           -------------------------------------------------
          |               Frequency Printout                |
           -------------------------------------------------
 projected vibrational frequencies (cm⁻¹)
eigval :       -0.00    -0.00    -0.00    -0.00     0.00     0.00
eigval :       29.83    32.93    45.30    52.57    80.25   100.18
eigval :      109.91   128.36   142.33   176.17   186.98   218.61
eigval :      271.24   283.84   305.14   333.93   367.40   376.84
eigval :      392.85   399.52   406.66   424.37   438.47   499.97
eigval :      511.36   539.58   580.67   623.19   661.37   747.69
eigval :      799.93   824.02   858.17   868.91   886.06   896.76
eigval :      910.43   917.31   939.20   959.33   969.09  1009.23
eigval :     1038.81  1065.84  1088.23  1113.22  1117.83  1137.83
eigval :     1186.14  1204.89  1218.52  1267.50  1275.70  1304.33
eigval :     1322.35  1334.96  1375.52  1382.29  1388.01  1401.30
eigval :     1439.32  1460.66  1472.36  1486.66  1576.39  1616.38
eigval :     1815.16  2445.49  2957.31  3016.26  3036.09  3041.71
eigval :     3050.79  3062.31  3065.92  3080.76  3095.84  3109.67
eigval :     3458.08  3469.27  3478.26
 reduced masses (amu)
   1: 12.62   2: 12.49   3: 12.85   4: 12.50   5: 12.73   6: 12.47   7: 12.44   8: 12.93
   9: 10.16  10: 12.08  11: 11.48  12: 13.36  13:  9.68  14:  2.72  15: 11.91  16:  9.84
  17:  3.99  18: 10.85  19:  5.50  20:  8.86  21: 12.95  22: 10.76  23:  7.67  24:  7.46
  25:  8.52  26:  4.53  27: 10.37  28: 10.10  29: 10.65  30:  9.34  31: 12.50  32: 11.05
  33: 11.87  34: 11.31  35: 11.43  36: 10.95  37:  5.44  38: 11.53  39:  3.37  40:  7.32
  41:  3.01  42: 10.10  43:  5.34  44:  3.87  45:  6.87  46:  7.61  47:  6.91  48:  7.86
  49:  7.48  50:  7.20  51:  7.63  52:  5.93  53:  6.12  54:  2.42  55:  2.18  56:  6.12
  57:  6.95  58:  6.21  59:  5.65  60:  8.23  61:  2.98  62: 11.38  63:  7.61  64:  3.40
  65:  1.61  66:  1.82  67:  9.01  68:  1.61  69:  1.68  70:  9.52  71: 11.50  72: 11.58
  73: 13.46  74:  2.04  75:  1.66  76:  1.84  77:  1.65  78:  1.61  79:  1.86  80:  1.69
  81:  1.78  82:  1.87  83:  1.79  84:  1.87  85:  1.86  86:  1.87  87:  1.87
 IR intensities (km·mol⁻¹)
   1:  0.10   2:  0.08   3:  0.07   4:  0.49   5:  0.39   6:  0.68   7:  4.37   8:  2.68
   9:  3.09  10:  4.33  11:  0.60  12:  2.04  13:  6.12  14:  1.96  15:  1.32  16:  2.94
  17:  2.31  18:  2.52  19:120.57  20:100.01  21:  2.65  22: 18.40  23:134.63  24: 55.10
  25: 49.62  26:132.08  27: 26.66  28: 38.94  29: 74.08  30:  5.58  31: 94.31  32: 35.91
  33: 26.72  34: 12.38  35:  0.99  36:103.14  37: 48.81  38: 15.86  39:  3.62  40: 44.60
  41:  2.92  42: 81.45  43: 35.70  44:  5.43  45: 69.53  46:  9.99  47: 49.74  48: 15.51
  49: 71.96  50:187.93  51:469.42  52:257.73  53:188.01  54:106.26  55: 37.63  56:162.52
  57:325.70  58:251.98  59:212.83  60: 85.86  61: 63.53  62:108.13  63:168.89  64: 26.01
  65: 31.08  66: 32.04  67: 35.35  68:  0.63  69:  5.51  70:503.49  71: 14.47  72:  1.95
  73:604.16  74:273.37  75: 20.62  76:  7.33  77:  2.25  78: 21.97  79: 35.05  80: 17.64
  81: 61.47  82:119.96  83: 50.17  84: 49.66  85:100.54  86:134.43  87: 93.59
 Raman intensities (Ä⁴*amu⁻¹)
   1:  0.00   2:  0.00   3:  0.00   4:  0.00   5:  0.00   6:  0.00   7:  0.00   8:  0.00
Refinement of some symmetry elements was terminated before convergence was reached.
Some symmetry elements may remain unidentified.
Molecule has no symmetry elements
It seems to be the C1 point group
   9:  0.00  10:  0.00  11:  0.00  12:  0.00  13:  0.00  14:  0.00  15:  0.00  16:  0.00
  17:  0.00  18:  0.00  19:  0.00  20:  0.00  21:  0.00  22:  0.00  23:  0.00  24:  0.00
  25:  0.00  26:  0.00  27:  0.00  28:  0.00  29:  0.00  30:  0.00  31:  0.00  32:  0.00
  33:  0.00  34:  0.00  35:  0.00  36:  0.00  37:  0.00  38:  0.00  39:  0.00  40:  0.00
  41:  0.00  42:  0.00  43:  0.00  44:  0.00  45:  0.00  46:  0.00  47:  0.00  48:  0.00
  49:  0.00  50:  0.00  51:  0.00  52:  0.00  53:  0.00  54:  0.00  55:  0.00  56:  0.00
  57:  0.00  58:  0.00  59:  0.00  60:  0.00  61:  0.00  62:  0.00  63:  0.00  64:  0.00
  65:  0.00  66:  0.00  67:  0.00  68:  0.00  69:  0.00  70:  0.00  71:  0.00  72:  0.00
  73:  0.00  74:  0.00  75:  0.00  76:  0.00  77:  0.00  78:  0.00  79:  0.00  80:  0.00
  81:  0.00  82:  0.00  83:  0.00  84:  0.00  85:  0.00  86:  0.00  87:  0.00
 output can be read by thermo (or use thermo option).
 writing <g98.out> molden fake output.
 recommended (thermochemical) frequency scaling factor: 1.0
           -------------------------------------------------
          |             Thermodynamic Functions             |
           -------------------------------------------------

c1  symmetry found (for desy threshold:  0.10E+00) used in thermo

          ...................................................
          :                      SETUP                      :
          :.................................................:
          :  # frequencies                          81      :
          :  # imaginary freq.                       0      :
          :  linear?                             false      :
          :  only rotor calc.                    false      :
          :  symmetry                               c1      :
          :  rotational number                       1      :
          :  scaling factor                  1.0000000      :
          :  rotor cutoff                   50.0000000 cm⁻¹ :
          :  imag. cutoff                  -20.0000000 cm⁻¹ :
          :.................................................:

    mode    ω/cm⁻¹     T·S(HO)/kcal·mol⁻¹    T·S(FR)/kcal·mol⁻¹   T·S(vib)
   ------------------------------------------------------------------------
       1     29.83    -1.74150 ( 11.24%)    -1.20948 ( 88.76%)    -1.26926
       2     32.93    -1.68285 ( 15.84%)    -1.18011 ( 84.16%)    -1.25976
       3     45.30    -1.49447 ( 40.26%)    -1.08568 ( 59.74%)    -1.25028
       4     52.57    -1.40672 ( 55.00%)    -1.04161 ( 45.00%)    -1.24243
       5     80.25    -1.15823 ( 86.90%)    -0.91634 ( 13.10%)    -1.12655
       6    100.18    -1.02887 ( 94.16%)    -0.85065 (  5.84%)    -1.01846
       7    109.91    -0.97509 ( 95.89%)    -0.82318 (  4.11%)    -0.96885
       8    128.36    -0.88564 ( 97.75%)    -0.77721 (  2.25%)    -0.88320
       9    142.33    -0.82656 ( 98.50%)    -0.74661 (  1.50%)    -0.82536
      10    176.17    -0.70619 ( 99.36%)    -0.68342 (  0.64%)    -0.70604
      11    186.98    -0.67310 ( 99.49%)    -0.66580 (  0.51%)    -0.67306
      12    218.61    -0.58754 ( 99.73%)    -0.61950 (  0.27%)    -0.58762
      13    271.24    -0.47354 ( 99.88%)    -0.55559 (  0.12%)    -0.47363
      14    283.84    -0.45032 ( 99.90%)    -0.54214 (  0.10%)    -0.45041
   ------------------------------------------------------------------------

   temp. (K)  partition function   enthalpy   heat capacity  entropy
                                   cal/mol     cal/K/mol   cal/K/mol   J/K/mol
 298.15  VIB  0.777E+07             9230.716     54.447     57.944
         ROT  0.289E+07              888.752      2.981     32.545
         INT  0.224E+14            10119.469     57.428     90.488
         TR   0.299E+28             1481.254      4.968     41.942
         TOT                       11600.7224    62.3965   132.4303   554.0882

       T/K    H(0)-H(T)+PV         H(T)/Eh          T*S/Eh         G(T)/Eh
   ------------------------------------------------------------------------
    298.15    0.184869E-01    0.238931E+00    0.629219E-01    0.176010E+00
   ------------------------------------------------------------------------

         :::::::::::::::::::::::::::::::::::::::::::::::::::::
         ::                  THERMODYNAMIC                  ::
         :::::::::::::::::::::::::::::::::::::::::::::::::::::
         :: total free energy         -47.503874228607 Eh   ::
         ::.................................................::
         :: total energy              -47.679883763928 Eh   ::
         :: zero point energy           0.220444501478 Eh   ::
         :: G(RRHO) w/o ZPVE           -0.044434966158 Eh   ::
         :: G(RRHO) contrib.            0.176009535321 Eh   ::
         :::::::::::::::::::::::::::::::::::::::::::::::::::::

           -------------------------------------------------
          | TOTAL ENERGY              -47.679883763928 Eh   |
          | TOTAL ENTHALPY            -47.440952334485 Eh   |
          | TOTAL FREE ENERGY         -47.503874228607 Eh   |
          | GRADIENT NORM               0.000639409171 Eh/α |
          | HOMO-LUMO GAP               1.411499183830 eV   |
           -------------------------------------------------

------------------------------------------------------------------------
 * finished run on 2026/06/09 at 00:48:45.596     
------------------------------------------------------------------------
 total:
 * wall-time:     0 d,  0 h,  0 min,  8.840 sec
 *  cpu-time:     0 d,  0 h,  2 min,  3.673 sec
 * ratio c/w:    13.990 speedup
 SCF:
 * wall-time:     0 d,  0 h,  0 min,  0.644 sec
 *  cpu-time:     0 d,  0 h,  0 min,  9.367 sec
 * ratio c/w:    14.552 speedup
 analytical hessian:
 * wall-time:     0 d,  0 h,  0 min,  8.139 sec
 *  cpu-time:     0 d,  0 h,  1 min, 53.534 sec
 * ratio c/w:    13.949 speedup

