13
 energy: -23.830979371209 gnorm: 0.000690414333 xtb: 6.7.1 (edcfbbe)
O           -0.00002379754188        0.56630078985421       -0.00005966379115
O            1.35479116717417       -1.26420141755358       -0.00284727986563
O           -1.35477392359083       -1.26425083961254        0.00264528501599
C            1.21476478432010       -0.08392464334884       -0.00161177463593
C           -1.21478927636407       -0.08396801973265        0.00157156443159
C            2.30844761833371        0.94559983797865        0.00132569933001
C           -2.30851000245077        0.94551793017564       -0.00095117373417
H            3.27435492393177        0.45056946836711       -0.00716681528613
H            2.21612065421777        1.56905027087844        0.88746107998058
H            2.20739251552866        1.58392594552994       -0.87299133944078
H           -2.20899357779557        1.58164213683371        0.87515858828965
H           -3.27440898770767        0.45043413860663        0.00480345216657
H           -2.21467209805538        1.57120440202329       -0.88533762246059
