      -----------------------------------------------------------      
     |                   =====================                   |     
     |                           x T B                           |     
     |                   =====================                   |     
     |                         S. Grimme                         |     
     |          Mulliken Center for Theoretical Chemistry        |     
     |                    University of Bonn                     |     
      -----------------------------------------------------------      

   * xtb version 6.7.1 (edcfbbe) compiled by 'conda@c0858423619e' on 2025-09-04

   xtb is free software: you can redistribute it and/or modify it under
   the terms of the GNU Lesser General Public License as published by
   the Free Software Foundation, either version 3 of the License, or
   (at your option) any later version.
   
   xtb is distributed in the hope that it will be useful,
   but WITHOUT ANY WARRANTY; without even the implied warranty of
   MERCHANTABILITY or FITNESS FOR A PARTICULAR PURPOSE.  See the
   GNU Lesser General Public License for more details.
   
   Cite this work as:
   * C. Bannwarth, E. Caldeweyher, S. Ehlert, A. Hansen, P. Pracht,
     J. Seibert, S. Spicher, S. Grimme, WIREs Comput. Mol. Sci., 2020, 11,
     e01493. DOI: 10.1002/wcms.1493
   
   for GFN2-xTB:
   * C. Bannwarth, S. Ehlert and S. Grimme., J. Chem. Theory Comput., 2019,
     15, 1652-1671. DOI: 10.1021/acs.jctc.8b01176
   for GFN1-xTB:
   * S. Grimme, C. Bannwarth, P. Shushkov, J. Chem. Theory Comput., 2017,
     13, 1989-2009. DOI: 10.1021/acs.jctc.7b00118
   for GFN0-xTB:
   * P. Pracht, E. Caldeweyher, S. Ehlert, S. Grimme, ChemRxiv, 2019, preprint.
     DOI: 10.26434/chemrxiv.8326202.v1
   for GFN-FF:
   * S. Spicher and S. Grimme, Angew. Chem. Int. Ed., 2020, 59, 15665-15673.
     DOI: 10.1002/anie.202004239
   
   for ALPB and GBSA implicit solvation:
   * S. Ehlert, M. Stahn, S. Spicher, S. Grimme, J. Chem. Theory Comput.,
     2021, 17, 4250-4261. DOI: 10.1021/acs.jctc.1c00471
   
   for ddCOSMO and CPCM-X implicit solvation:
   * M. Stahn, S. Ehlert, S. Grimme, J. Phys. Chem. A,
     2023, XX, XXXX-XXXX. DOI: 10.1021/acs.jpca.3c04382
   
   for DFT-D4:
   * E. Caldeweyher, C. Bannwarth and S. Grimme, J. Chem. Phys., 2017,
     147, 034112. DOI: 10.1063/1.4993215
   * E. Caldeweyher, S. Ehlert, A. Hansen, H. Neugebauer, S. Spicher,
     C. Bannwarth and S. Grimme, J. Chem. Phys., 2019, 150, 154122.
     DOI: 10.1063/1.5090222
   * E. Caldeweyher, J.-M. Mewes, S. Ehlert and S. Grimme, Phys. Chem. Chem. Phys.
     2020, 22, 8499-8512. DOI: 10.1039/D0CP00502A
   
   for sTDA-xTB:
   * S. Grimme and C. Bannwarth, J. Chem. Phys., 2016, 145, 054103.
     DOI: 10.1063/1.4959605
   
   in the mass-spec context:
   * V. Asgeirsson, C. Bauer and S. Grimme, Chem. Sci., 2017, 8, 4879.
     DOI: 10.1039/c7sc00601b
   * J. Koopman and S. Grimme, ACS Omega 2019, 4, 12, 15120-15133.
     DOI: 10.1021/acsomega.9b02011
   
   for metadynamics refer to:
   * S. Grimme, J. Chem. Theory Comput., 2019, 155, 2847-2862
     DOI: 10.1021/acs.jctc.9b00143
   
   for SPH calculations refer to:
   * S. Spicher and S. Grimme, J. Chem. Theory Comput., 2021, 17, 1701-1714
     DOI: 10.1021/acs.jctc.0c01306
   
   for ONIOM refer to:
   * C. Plett, A. Katbashev, S. Ehlert, S. Grimme, M. Bursch,
     Phys. Chem. Chem. Phys., 2023, 25, 17860-17868. DOI: 10.1039/D3CP02178E
   
   for DIPRO refer to:
   * J. Kohn, N. Gildemeister, S. Grimme, D. Fazzi, A. Hansen,
     J. Chem. Phys., 2023, just accepted.
   
   for PTB refer to:
   * S. Grimme, M. Mueller, A. Hansen, J. Chem. Phys., 2023, 158, 124111.
     DOI: 10.1063/5.0137838
   
   with help from (in alphabetical order)
   P. Atkinson, C. Bannwarth, F. Bohle, G. Brandenburg, E. Caldeweyher
   M. Checinski, S. Dohm, S. Ehlert, S. Ehrlich, I. Gerasimov, C. Hölzer
   A. Katbashev, J. Kohn, J. Koopman, C. Lavigne, S. Lehtola, F. März, M. Müller,
   F. Musil, H. Neugebauer, J. Pisarek, C. Plett, P. Pracht, F. Pultar,
   J. Seibert, P. Shushkov, S. Spicher, M. Stahn, M. Steiner, T. Strunk,
   J. Stückrath, T. Rose, and J. Unsleber
   
 * started run on 2026/06/07 at 14:02:10.825     
   ID    Z sym.   atoms
    1    8 O      1
    2    7 N      2
    3    6 C      3-8
    4    1 H      9-15

           -------------------------------------------------
          |                Calculation Setup                |
           -------------------------------------------------

          program call               : xtb 4-aminophenol.xyz --opt
          hostname                   : fedora
          coordinate file            : 4-aminophenol.xyz
          omp threads                :                    16


           -------------------------------------------------
          |                 G F N 2 - x T B                 |
           -------------------------------------------------

        Reference                      10.1021/acs.jctc.8b01176
      * Hamiltonian:
        H0-scaling (s, p, d)           1.850000    2.230000    2.230000
        zeta-weighting                 0.500000
      * Dispersion:
        s8                             2.700000
        a1                             0.520000
        a2                             5.000000
        s9                             5.000000
      * Repulsion:
        kExp                           1.500000    1.000000
        rExp                           1.000000
      * Coulomb:
        alpha                          2.000000
        third order                    shell-resolved
        anisotropic                    true
        a3                             3.000000
        a5                             4.000000
        cn-shift                       1.200000
        cn-exp                         4.000000
        max-rad                        5.000000


          ...................................................
          :                      SETUP                      :
          :.................................................:
          :  # basis functions                  39          :
          :  # atomic orbitals                  39          :
          :  # shells                           23          :
          :  # electrons                        42          :
          :  max. iterations                   250          :
          :  Hamiltonian                  GFN2-xTB          :
          :  restarted?                      false          :
          :  GBSA solvation                  false          :
          :  PC potential                    false          :
          :  electronic temp.          300.0000000     K    :
          :  accuracy                    1.0000000          :
          :  -> integral cutoff          0.2500000E+02      :
          :  -> integral neglect         0.1000000E-07      :
          :  -> SCF convergence          0.1000000E-05 Eh   :
          :  -> wf. convergence          0.1000000E-03 e    :
          :  Broyden damping             0.4000000          :
          :  net charge                          0          :
          :  unpaired electrons                  0          :
          ...................................................

 iter      E             dE          RMSdq      gap      omega  full diag
   1    -23.7033527 -0.237034E+02  0.441E+00    2.63       0.0  T
   2    -23.7255125 -0.221599E-01  0.273E+00    3.48       1.0  T
   3    -23.7243263  0.118629E-02  0.835E-01    3.26       1.0  T
   4    -23.7268607 -0.253447E-02  0.279E-01    3.43       1.0  T
   5    -23.7276762 -0.815446E-03  0.939E-02    3.42       1.0  T
   6    -23.7277070 -0.308181E-04  0.414E-02    3.41       1.0  T
   7    -23.7277124 -0.541737E-05  0.190E-02    3.41       1.4  T
   8    -23.7277137 -0.127709E-05  0.531E-03    3.41       4.9  T
   9    -23.7277137 -0.853432E-08  0.245E-03    3.41      10.5  T
  10    -23.7277137 -0.480714E-07  0.840E-04    3.41      30.7  T
  11    -23.7277137 -0.160176E-08  0.201E-04    3.41     128.5  T

   *** convergence criteria satisfied after 11 iterations ***

         #    Occupation            Energy/Eh            Energy/eV
      -------------------------------------------------------------
         1        2.0000           -0.6969380             -18.9646
       ...           ...                  ...                  ...
        15        2.0000           -0.4691403             -12.7660
        16        2.0000           -0.4594816             -12.5031
        17        2.0000           -0.4433820             -12.0650
        18        2.0000           -0.4162135             -11.3257
        19        2.0000           -0.4081320             -11.1058
        20        2.0000           -0.3928433             -10.6898
        21        2.0000           -0.3418006              -9.3009 (HOMO)
        22                         -0.2164848              -5.8909 (LUMO)
        23                         -0.1893674              -5.1529
        24                         -0.0768975              -2.0925
        25                         -0.0004458              -0.0121
        26                          0.0785198               2.1366
       ...                                ...                  ...
        39                          0.6513429              17.7239
      -------------------------------------------------------------
                  HL-Gap            0.1253158 Eh            3.4100 eV
             Fermi-level           -0.2791427 Eh           -7.5959 eV

 SCC (total)                   0 d,  0 h,  0 min,  0.015 sec
 SCC setup                      ...        0 min,  0.000 sec (  1.587%)
 Dispersion                     ...        0 min,  0.000 sec (  2.987%)
 classical contributions        ...        0 min,  0.001 sec (  6.619%)
 integral evaluation            ...        0 min,  0.001 sec (  8.213%)
 iterations                     ...        0 min,  0.008 sec ( 54.637%)
 molecular gradient             ...        0 min,  0.004 sec ( 24.565%)
 printout                       ...        0 min,  0.000 sec (  1.239%)

         :::::::::::::::::::::::::::::::::::::::::::::::::::::
         ::                     SUMMARY                     ::
         :::::::::::::::::::::::::::::::::::::::::::::::::::::
         :: total energy             -23.385411574605 Eh    ::
         :: gradient norm              0.046907369933 Eh/a0 ::
         :: HOMO-LUMO gap              3.410016631968 eV    ::
         ::.................................................::
         :: SCC energy               -23.727703727893 Eh    ::
         :: -> isotropic ES            0.030574862069 Eh    ::
         :: -> anisotropic ES          0.006322843951 Eh    ::
         :: -> anisotropic XC          0.009339890412 Eh    ::
         :: -> dispersion             -0.011039979884 Eh    ::
         :: repulsion energy           0.342292153287 Eh    ::
         :: add. restraining           0.000000000000 Eh    ::
         :: total charge               0.000000000000 e     ::
         :::::::::::::::::::::::::::::::::::::::::::::::::::::

      ----------------------------------------------------------- 
     |                   =====================                   |
     |                        A N C O P T                        |
     |                   =====================                   |
     |               Approximate Normal Coordinate               |
     |                Rational Function Optimizer                |
      ----------------------------------------------------------- 
      ----------------------------------------------------------- 
     |                   =====================                   |
     |                        A N C O P T                        |
     |                   =====================                   |
     |               Approximate Normal Coordinate               |
     |                Rational Function Optimizer                |
      ----------------------------------------------------------- 

          ...................................................
          :                      SETUP                      :
          :.................................................:
          :   optimization level            normal          :
          :   max. optcycles                   200          :
          :   ANC micro-cycles                  20          :
          :   degrees of freedom                39          :
          :.................................................:
          :   RF solver                   davidson          :
          :   write xtbopt.log                true          :
          :   linear?                        false          :
          :   energy convergence         0.5000000E-05 Eh   :
          :   grad. convergence          0.1000000E-02 Eh/α :
          :   maxmium RF displ.          1.0000000          :
          :   Hlow (freq-cutoff)         0.1000000E-01      :
          :   Hmax (freq-cutoff)         5.0000000          :
          :   S6 in model hess.         20.0000000          :
          ...................................................

generating ANC from exact Hessian ...
Using Lindh-Hessian (1995)
 Shifting diagonal of input Hessian by    5.6034751125547998E-003
 Lowest  eigenvalues of input Hessian
    0.000000    0.000000    0.000000    0.000000    0.000000    0.000000
    0.010000    0.018510    0.020869    0.022785    0.027977    0.028022
    0.044873    0.046107    0.062869    0.073138    0.082597    0.093184
 Highest eigenvalues
    1.538995    1.646626    1.863589    1.888791    2.013056    2.090239


........................................................................
.............................. CYCLE    1 ..............................
........................................................................

 iter      E             dE          RMSdq      gap      omega  full diag
   1    -23.7277137 -0.237277E+02  0.102E-04    3.41       0.0  T
   2    -23.7277137 -0.217355E-10  0.595E-05    3.41     434.1  T
   3    -23.7277137 -0.461853E-11  0.377E-05    3.41     684.2  T
     SCC iter.                  ...        0 min,  0.002 sec
     gradient                   ...        0 min,  0.004 sec
 * total energy  :   -23.3854116 Eh     change       -0.2751079E-09 Eh
   gradient norm :     0.0469041 Eh/α   predicted     0.0000000E+00 (-100.00%)
   displ. norm   :     0.1200398 α      lambda       -0.3138838E-02
   maximum displ.:     0.0727861 α      in ANC's #20, #10, #7, ...

........................................................................
.............................. CYCLE    2 ..............................
........................................................................

 iter      E             dE          RMSdq      gap      omega  full diag
   1    -23.7468767 -0.237469E+02  0.170E-01    3.45       0.0  T
   2    -23.7470011 -0.124364E-03  0.109E-01    3.49       1.0  T
   3    -23.7470396 -0.384812E-04  0.595E-02    3.49       1.0  T
   4    -23.7470428 -0.319552E-05  0.168E-02    3.49       1.5  T
   5    -23.7470439 -0.116576E-05  0.325E-03    3.49       7.9  T
   6    -23.7470440 -0.154344E-07  0.177E-03    3.49      14.6  T
   7    -23.7470440 -0.624130E-08  0.812E-04    3.49      31.8  T
   8    -23.7470440 -0.294490E-08  0.265E-04    3.49      97.4  T
     SCC iter.                  ...        0 min,  0.007 sec
     gradient                   ...        0 min,  0.004 sec
 * total energy  :   -23.3874770 Eh     change       -0.2065452E-02 Eh
   gradient norm :     0.0207200 Eh/α   predicted    -0.1592033E-02 ( -22.92%)
   displ. norm   :     0.0612253 α      lambda       -0.5626025E-03
   maximum displ.:     0.0377112 α      in ANC's #7, #20, #5, ...

........................................................................
.............................. CYCLE    3 ..............................
........................................................................

 iter      E             dE          RMSdq      gap      omega  full diag
   1    -23.7528660 -0.237529E+02  0.102E-01    3.50       0.0  T
   2    -23.7529176 -0.515767E-04  0.607E-02    3.52       1.0  T
   3    -23.7529326 -0.149995E-04  0.324E-02    3.52       1.0  T
   4    -23.7529337 -0.111300E-05  0.108E-02    3.52       2.4  T
   5    -23.7529341 -0.378399E-06  0.211E-03    3.52      12.3  T
   6    -23.7529341 -0.499352E-08  0.106E-03    3.52      24.3  T
   7    -23.7529341 -0.169322E-08  0.459E-04    3.52      56.2  T
   8    -23.7529341 -0.878750E-09  0.149E-04    3.52     173.5  T
     SCC iter.                  ...        0 min,  0.202 sec
     gradient                   ...        0 min,  0.004 sec
 * total energy  :   -23.3877723 Eh     change       -0.2952276E-03 Eh
   gradient norm :     0.0040277 Eh/α   predicted    -0.2823547E-03 (  -4.36%)
   displ. norm   :     0.0167603 α      lambda       -0.2681770E-04
   maximum displ.:     0.0119552 α      in ANC's #7, #5, #13, ...

........................................................................
.............................. CYCLE    4 ..............................
........................................................................

 iter      E             dE          RMSdq      gap      omega  full diag
   1    -23.7519743 -0.237520E+02  0.200E-02    3.52       0.0  T
   2    -23.7519746 -0.233164E-06  0.110E-02    3.52       2.3  T
   3    -23.7519744  0.110233E-06  0.533E-03    3.52       4.8  T
   4    -23.7519746 -0.176693E-06  0.766E-04    3.52      33.7  T
   5    -23.7519746 -0.331591E-08  0.310E-04    3.52      83.3  T
     SCC iter.                  ...        0 min,  0.004 sec
     gradient                   ...        0 min,  0.004 sec
 * total energy  :   -23.3877910 Eh     change       -0.1877527E-04 Eh
   gradient norm :     0.0017139 Eh/α   predicted    -0.1341225E-04 ( -28.56%)
   displ. norm   :     0.0197417 α      lambda       -0.9374937E-05
   maximum displ.:     0.0137529 α      in ANC's #7, #5, #13, ...

........................................................................
.............................. CYCLE    5 ..............................
........................................................................

 iter      E             dE          RMSdq      gap      omega  full diag
   1    -23.7509110 -0.237509E+02  0.197E-02    3.52       0.0  T
   2    -23.7509112 -0.115761E-06  0.113E-02    3.52       2.3  T
   3    -23.7509109  0.245013E-06  0.506E-03    3.52       5.1  T
   4    -23.7509112 -0.324890E-06  0.587E-04    3.52      44.0  T
   5    -23.7509112 -0.107272E-08  0.321E-04    3.52      80.5  T
     SCC iter.                  ...        0 min,  0.003 sec
     gradient                   ...        0 min,  0.004 sec
 * total energy  :   -23.3877958 Eh     change       -0.4728184E-05 Eh
   gradient norm :     0.0010746 Eh/α   predicted    -0.4686993E-05 (  -0.87%)
   displ. norm   :     0.0045259 α      lambda       -0.1479003E-05
   maximum displ.:     0.0023278 α      in ANC's #7, #10, #5, ...

........................................................................
.............................. CYCLE    6 ..............................
........................................................................

 iter      E             dE          RMSdq      gap      omega  full diag
   1    -23.7513223 -0.237513E+02  0.671E-03    3.52       0.0  T
   2    -23.7513223 -0.164522E-07  0.379E-03    3.52       6.8  T
   3    -23.7513223  0.879738E-08  0.139E-03    3.52      18.6  T
   4    -23.7513223 -0.132082E-07  0.206E-04    3.52     125.3  T
   5    -23.7513223 -0.155090E-09  0.979E-05    3.52     263.8  T
     SCC iter.                  ...        0 min,  0.003 sec
     gradient                   ...        0 min,  0.004 sec
 * total energy  :   -23.3877972 Eh     change       -0.1436639E-05 Eh
   gradient norm :     0.0003231 Eh/α   predicted    -0.7394658E-06 ( -48.53%)
   displ. norm   :     0.0072526 α      lambda       -0.9117657E-06
   maximum displ.:     0.0036253 α      in ANC's #9, #1, #14, ...

   *** GEOMETRY OPTIMIZATION CONVERGED AFTER 6 ITERATIONS ***

------------------------------------------------------------------------
 total energy gain   :        -0.0023856 Eh       -1.4970 kcal/mol
 total RMSD          :         0.0486873 a0        0.0258 Å
 total power (kW/mol):        -1.0439075 (step)  -24.2741 (real)
------------------------------------------------------------------------

 ANCopt (total)                0 d,  0 h,  0 min,  0.258 sec
 optimizer setup                ...        0 min,  0.000 sec (  0.022%)
 model hessian                  ...        0 min,  0.001 sec (  0.440%)
 ANC generation                 ...        0 min,  0.000 sec (  0.103%)
 coordinate transformation      ...        0 min,  0.000 sec (  0.012%)
 single point calculation       ...        0 min,  0.255 sec ( 98.802%)
 optimization log               ...        0 min,  0.000 sec (  0.135%)
 hessian update                 ...        0 min,  0.001 sec (  0.197%)
 rational function              ...        0 min,  0.001 sec (  0.201%)

================
 final structure:
================
15
 xtb: 6.7.1 (edcfbbe)
O           -2.75951913283753        0.02535871105913        0.00040548851274
N            2.77767565472777        0.00381973836086       -0.00249639537679
C            1.40656739251315       -0.00309455327983       -0.00067327801533
C            0.69865011240302       -1.20406182134750       -0.00035802924699
C            0.68643775334308        1.19320075649070       -0.00035453446625
C           -1.38978965868587       -0.01345061700772        0.00011230903058
C           -0.68327985506519       -1.20795383317044       -0.00002087576720
C           -0.69236872784911        1.18910423943217       -0.00000610455971
H            1.23852038670998       -2.14016177573083       -0.00049085839187
H            1.22076301736396        2.13228567866659       -0.00049159427257
H           -1.21699413191693       -2.14993242126059        0.00014716218922
H           -1.24883452447920        2.11276209732452        0.00017003801958
H            3.28881160809441       -0.85684154569836        0.00225296997503
H            3.27885675884618        0.87027385153524        0.00223428026972
H           -3.10199665316771       -0.87570850537394        0.00036942209985

 Bond Distances (Angstroems)
 ---------------------------
O1-C6=1.3703         O1-H15=0.9640        N2-C3=1.3711         N2-H13=1.0010        N2-H14=1.0010        C3-N2=1.3711         
C3-C4=1.3941         C3-C5=1.3963         C4-C3=1.3941         C4-C7=1.3819         C4-H9=1.0806         C5-C3=1.3963         
C5-C8=1.3788         C5-H10=1.0805        C6-O1=1.3703         C6-C7=1.3878         C6-C8=1.3902         C7-C4=1.3819         
C7-C6=1.3878         C7-H11=1.0827        C8-C5=1.3788         C8-C6=1.3902         C8-H12=1.0783        H9-C4=1.0806         
H10-C5=1.0805        H11-C7=1.0827        H12-C8=1.0783        H13-N2=1.0010        H14-N2=1.0010        H15-O1=0.9640        
 C  H  Rav=1.0805 sigma=0.0015  Rmin=1.0783  Rmax=1.0827     4
 C  C  Rav=1.3882 sigma=0.0062  Rmin=1.3788  Rmax=1.3963     6
 N  H  Rav=1.0010 sigma=0.0000  Rmin=1.0010  Rmax=1.0010     2
 N  C  Rav=1.3711 sigma=0.0000  Rmin=1.3711  Rmax=1.3711     1
 O  H  Rav=0.9640 sigma=0.0000  Rmin=0.9640  Rmax=0.9640     1
 O  C  Rav=1.3703 sigma=0.0000  Rmin=1.3703  Rmax=1.3703     1

 selected bond angles (degree)
 --------------------
H15-O1-C6=109.19               H13-N2-C3=120.42               H14-N2-C3=120.33               H14-N2-H13=119.25              
C4-C3-N2=120.81                C5-C3-N2=120.76                C5-C3-C4=118.44                C7-C4-C3=120.68                
H9-C4-C3=119.51                H9-C4-C7=119.81                C8-C5-C3=120.88                H10-C5-C3=119.31               
H10-C5-C8=119.81               C7-C6-O1=122.23                C8-C6-O1=118.49                C8-C6-C7=119.29                
C6-C7-C4=120.44                H11-C7-C4=119.70               H11-C7-C6=119.86               C6-C8-C5=120.28                
H12-C8-C5=120.90               H12-C8-C6=118.82               

 selected dihedral angles (degree)
 ---------------------------------
C4-C3-N2-H13=359.61           C4-C3-N2-H14=180.33           C5-C3-N2-H13=179.67           C5-C3-N2-H14=  0.39           
C7-C4-C3-N2=180.07            C7-C4-C3-C5=  0.00            H9-C4-C3-N2=  0.07            H9-C4-C3-C5=180.01            
C8-C5-C3-N2=179.93            C8-C5-C3-C4=  0.00            H10-C5-C3-N2=359.93           H10-C5-C3-C4=179.99           
C7-C6-O1-H15=  0.00           C8-C6-O1-H15=179.99           C6-C7-C4-C3=  0.00            C6-C7-C4-H9=180.00            
H11-C7-C4-C3=180.00           H11-C7-C4-H9=  0.00           C4-C7-C6-O1=180.00            C4-C7-C6-C8=  0.00            
H11-C7-C6-O1=  0.00           H11-C7-C6-C8=180.00           C6-C8-C5-C3=  0.00            C6-C8-C5-H10=180.00           
H12-C8-C5-C3=180.00           H12-C8-C5-H10=  0.00          C5-C8-C6-O1=180.00            C5-C8-C6-C7=  0.00            
H12-C8-C6-O1=  0.00           H12-C8-C6-C7=180.00           
           -------------------------------------------------
          |                Final Singlepoint                |
           -------------------------------------------------

          ...................................................
          :                      SETUP                      :
          :.................................................:
          :  # basis functions                  39          :
          :  # atomic orbitals                  39          :
          :  # shells                           23          :
          :  # electrons                        42          :
          :  max. iterations                   250          :
          :  Hamiltonian                  GFN2-xTB          :
          :  restarted?                      false          :
          :  GBSA solvation                  false          :
          :  PC potential                    false          :
          :  electronic temp.          300.0000000     K    :
          :  accuracy                    1.0000000          :
          :  -> integral cutoff          0.2500000E+02      :
          :  -> integral neglect         0.1000000E-07      :
          :  -> SCF convergence          0.1000000E-05 Eh   :
          :  -> wf. convergence          0.1000000E-03 e    :
          :  Broyden damping             0.4000000          :
          :  net charge                          0          :
          :  unpaired electrons                  0          :
          ...................................................

 iter      E             dE          RMSdq      gap      omega  full diag
   1    -23.7513223 -0.237513E+02  0.447E-05    3.52       0.0  T
   2    -23.7513223 -0.439471E-11  0.254E-05    3.52    1016.5  T
   3    -23.7513223 -0.110489E-11  0.155E-05    3.52    1667.9  T

   *** convergence criteria satisfied after 3 iterations ***

         #    Occupation            Energy/Eh            Energy/eV
      -------------------------------------------------------------
         1        2.0000           -0.6937945             -18.8791
       ...           ...                  ...                  ...
        15        2.0000           -0.4697901             -12.7836
        16        2.0000           -0.4594217             -12.5015
        17        2.0000           -0.4447276             -12.1017
        18        2.0000           -0.4126862             -11.2298
        19        2.0000           -0.4118322             -11.2065
        20        2.0000           -0.3931298             -10.6976
        21        2.0000           -0.3406669              -9.2700 (HOMO)
        22                         -0.2112609              -5.7487 (LUMO)
        23                         -0.1863864              -5.0718
        24                         -0.0704832              -1.9179
        25                          0.0198226               0.5394
        26                          0.0841159               2.2889
       ...                                ...                  ...
        39                          0.6801725              18.5084
      -------------------------------------------------------------
                  HL-Gap            0.1294059 Eh            3.5213 eV
             Fermi-level           -0.2759639 Eh           -7.5094 eV

 SCC (total)                   0 d,  0 h,  0 min,  0.008 sec
 SCC setup                      ...        0 min,  0.000 sec (  3.470%)
 Dispersion                     ...        0 min,  0.000 sec (  2.715%)
 classical contributions        ...        0 min,  0.000 sec (  1.304%)
 integral evaluation            ...        0 min,  0.001 sec ( 19.158%)
 iterations                     ...        0 min,  0.002 sec ( 23.653%)
 molecular gradient             ...        0 min,  0.004 sec ( 48.775%)
 printout                       ...        0 min,  0.000 sec (  0.743%)

         :::::::::::::::::::::::::::::::::::::::::::::::::::::
         ::                     SUMMARY                     ::
         :::::::::::::::::::::::::::::::::::::::::::::::::::::
         :: total energy             -23.387797194849 Eh    ::
         :: gradient norm              0.000323367453 Eh/a0 ::
         :: HOMO-LUMO gap              3.521314630985 eV    ::
         ::.................................................::
         :: SCC energy               -23.751312852503 Eh    ::
         :: -> isotropic ES            0.030553256238 Eh    ::
         :: -> anisotropic ES          0.005943544582 Eh    ::
         :: -> anisotropic XC          0.008688092982 Eh    ::
         :: -> dispersion             -0.011094064375 Eh    ::
         :: repulsion energy           0.363515657655 Eh    ::
         :: add. restraining           0.000000000000 Eh    ::
         :: total charge               0.000000000000 e     ::
         :::::::::::::::::::::::::::::::::::::::::::::::::::::

           -------------------------------------------------
          |                Property Printout                |
           -------------------------------------------------

    * Orbital Energies and Occupations

         #    Occupation            Energy/Eh            Energy/eV
      -------------------------------------------------------------
         1        2.0000           -0.6937945             -18.8791
       ...           ...                  ...                  ...
         9        2.0000           -0.5327789             -14.4977
        10        2.0000           -0.5261794             -14.3181
        11        2.0000           -0.5098066             -13.8725
        12        2.0000           -0.5061946             -13.7743
        13        2.0000           -0.4783460             -13.0165
        14        2.0000           -0.4741427             -12.9021
        15        2.0000           -0.4697901             -12.7836
        16        2.0000           -0.4594217             -12.5015
        17        2.0000           -0.4447276             -12.1017
        18        2.0000           -0.4126862             -11.2298
        19        2.0000           -0.4118322             -11.2065
        20        2.0000           -0.3931298             -10.6976
        21        2.0000           -0.3406669              -9.2700 (HOMO)
        22                         -0.2112609              -5.7487 (LUMO)
        23                         -0.1863864              -5.0718
        24                         -0.0704832              -1.9179
        25                          0.0198226               0.5394
        26                          0.0841159               2.2889
        27                          0.1305511               3.5525
        28                          0.1609332               4.3792
        29                          0.1655041               4.5036
        30                          0.1939331               5.2772
        31                          0.2204502               5.9988
        32                          0.2397197               6.5231
       ...                                ...                  ...
        39                          0.6801725              18.5084
      -------------------------------------------------------------
                  HL-Gap            0.1294059 Eh            3.5213 eV
             Fermi-level           -0.2759639 Eh           -7.5094 eV

     #   Z          covCN         q      C6AA      α(0)
     1   8 O        1.659    -0.406    20.968     6.182
     2   7 N        2.642    -0.270    26.992     7.716
     3   6 C        2.898     0.073    26.367     8.419
     4   6 C        2.925    -0.065    29.622     8.925
     5   6 C        2.925    -0.064    29.589     8.921
     6   6 C        2.846     0.128    25.199     8.227
     7   6 C        2.918    -0.070    29.735     8.942
     8   6 C        2.918    -0.053    29.326     8.880
     9   1 H        0.926     0.024     2.674     2.557
    10   1 H        0.926     0.027     2.624     2.533
    11   1 H        0.925     0.021     2.714     2.576
    12   1 H        0.926     0.045     2.377     2.411
    13   1 H        0.861     0.158     1.345     1.817
    14   1 H        0.861     0.159     1.341     1.814
    15   1 H        0.805     0.292     0.745     1.355

 Mol. C6AA /au·bohr⁶  :       2623.300317
 Mol. C8AA /au·bohr⁸  :      62317.638410
 Mol. α(0) /au        :         81.276490


Wiberg/Mayer (AO) data.
largest (>0.10) Wiberg bond orders for each atom

 ---------------------------------------------------------------------------
     #   Z sym  total        # sym  WBO       # sym  WBO       # sym  WBO
 ---------------------------------------------------------------------------
     1   8 O    2.086 --     6 C    1.048    15 H    0.894
     2   7 N    3.269 --     3 C    1.165    13 H    0.958    14 H    0.958
     3   6 C    3.971 --     4 C    1.346     5 C    1.335     2 N    1.165
     4   6 C    3.986 --     7 C    1.451     3 C    1.346     9 H    0.969
                             8 C    0.105
     5   6 C    3.987 --     8 C    1.470     3 C    1.335    10 H    0.969
                             7 C    0.103
     6   6 C    3.935 --     7 C    1.377     8 C    1.361     1 O    1.048
     7   6 C    3.988 --     4 C    1.451     6 C    1.377    11 H    0.967
                             5 C    0.103
     8   6 C    3.990 --     5 C    1.470     6 C    1.361    12 H    0.969
                             4 C    0.105
     9   1 H    0.999 --     4 C    0.969
    10   1 H    0.999 --     5 C    0.969
    11   1 H    0.999 --     7 C    0.967
    12   1 H    0.997 --     8 C    0.969
    13   1 H    0.974 --     2 N    0.958
    14   1 H    0.974 --     2 N    0.958
    15   1 H    0.915 --     1 O    0.894
 ---------------------------------------------------------------------------

Topologies differ in total number of bonds
Writing topology from bond orders to xtbtopo.mol

molecular dipole:
                 x           y           z       tot (Debye)
 q only:        0.771      -0.352       0.003
   full:        0.892      -0.582       0.006       2.708
molecular quadrupole (traceless):
                xx          xy          yy          xz          yz          zz
 q only:        4.261       4.078      -0.435       0.023      -0.000      -3.826
  q+dip:        5.391       5.848       2.557       0.057      -0.001      -7.948
   full:        5.001       5.953       1.151       0.058      -0.001      -6.152

           -------------------------------------------------
          |                Geometry Summary                 |
           -------------------------------------------------

      molecular mass/u    :      109.1261088
   center of mass at/Å    :       -0.0132242      -0.0092633      -0.0003654
  moments of inertia/u·Å² :        0.8964744E+02   0.3372938E+03   0.4269412E+03
rotational constants/cm⁻¹ :        0.1880437E+00   0.4997907E-01   0.3948467E-01

 * 15 selected distances

     #   Z          #   Z                                           value/Å
     2   7 N        3   6 C                                       1.3711270
     3   6 C        4   6 C                                       1.3940838
     3   6 C        5   6 C                                       1.3963200 (max)
     1   8 O        6   6 C                                       1.3702793
     4   6 C        7   6 C                                       1.3819356
     6   6 C        7   6 C                                       1.3878020
     5   6 C        8   6 C                                       1.3788127
     6   6 C        8   6 C                                       1.3901563
     4   6 C        9   1 H                                       1.0806217
     5   6 C       10   1 H                                       1.0804556
     7   6 C       11   1 H                                       1.0826702
     8   6 C       12   1 H                                       1.0783312
     2   7 N       13   1 H                                       1.0010098
     2   7 N       14   1 H                                       1.0009734
     1   8 O       15   1 H                                       0.9639570 (min)

 * 6 distinct bonds (by element types)

   Z      Z             #   av. dist./Å        max./Å        min./Å
   1 H    6 C           4     1.0805197     1.0826702     1.0783312
   6 C    6 C           6     1.3881851     1.3963200     1.3788127
   1 H    7 N           2     1.0009916     1.0010098     1.0009734
   6 C    7 N           1     1.3711270     1.3711270     1.3711270
   1 H    8 O           1     0.9639570     0.9639570     0.9639570
   6 C    8 O           1     1.3702793     1.3702793     1.3702793


optimized geometry written to: xtbopt.xyz


           -------------------------------------------------
          | TOTAL ENERGY              -23.387797194849 Eh   |
          | GRADIENT NORM               0.000323367453 Eh/α |
          | HOMO-LUMO GAP               3.521314630985 eV   |
           -------------------------------------------------

------------------------------------------------------------------------
 * finished run on 2026/06/07 at 14:02:11.122     
------------------------------------------------------------------------
 total:
 * wall-time:     0 d,  0 h,  0 min,  0.296 sec
 *  cpu-time:     0 d,  0 h,  0 min,  3.914 sec
 * ratio c/w:    13.214 speedup
 SCF:
 * wall-time:     0 d,  0 h,  0 min,  0.015 sec
 *  cpu-time:     0 d,  0 h,  0 min,  0.243 sec
 * ratio c/w:    15.823 speedup
 ANC optimizer:
 * wall-time:     0 d,  0 h,  0 min,  0.266 sec
 *  cpu-time:     0 d,  0 h,  0 min,  3.456 sec
 * ratio c/w:    12.987 speedup

