8
 energy: -14.472034722990 gnorm: 0.000784229647 xtb: 6.7.1 (edcfbbe)
O           -0.30762299895922        1.26684009995011       -0.00014508871524
O           -0.98351045818080       -0.85249766270956        0.00008879345911
C            1.37715090681245       -0.36828003099144        0.00015470965344
C           -0.08228844777546       -0.03928468077540        0.00078880095469
H            1.83720402916883        0.06872306403896       -0.88244492782119
H            1.84049401251063        0.07904948737910        0.87571601125026
H            1.51518578136746       -1.44389421775130        0.00577012782268
H           -1.25881282494390        1.48644394085952       -0.00122842660375
