      -----------------------------------------------------------      
     |                   =====================                   |     
     |                           x T B                           |     
     |                   =====================                   |     
     |                         S. Grimme                         |     
     |          Mulliken Center for Theoretical Chemistry        |     
     |                    University of Bonn                     |     
      -----------------------------------------------------------      

   * xtb version 6.7.1 (edcfbbe) compiled by 'conda@c0858423619e' on 2025-09-04

   xtb is free software: you can redistribute it and/or modify it under
   the terms of the GNU Lesser General Public License as published by
   the Free Software Foundation, either version 3 of the License, or
   (at your option) any later version.
   
   xtb is distributed in the hope that it will be useful,
   but WITHOUT ANY WARRANTY; without even the implied warranty of
   MERCHANTABILITY or FITNESS FOR A PARTICULAR PURPOSE.  See the
   GNU Lesser General Public License for more details.
   
   Cite this work as:
   * C. Bannwarth, E. Caldeweyher, S. Ehlert, A. Hansen, P. Pracht,
     J. Seibert, S. Spicher, S. Grimme, WIREs Comput. Mol. Sci., 2020, 11,
     e01493. DOI: 10.1002/wcms.1493
   
   for GFN2-xTB:
   * C. Bannwarth, S. Ehlert and S. Grimme., J. Chem. Theory Comput., 2019,
     15, 1652-1671. DOI: 10.1021/acs.jctc.8b01176
   for GFN1-xTB:
   * S. Grimme, C. Bannwarth, P. Shushkov, J. Chem. Theory Comput., 2017,
     13, 1989-2009. DOI: 10.1021/acs.jctc.7b00118
   for GFN0-xTB:
   * P. Pracht, E. Caldeweyher, S. Ehlert, S. Grimme, ChemRxiv, 2019, preprint.
     DOI: 10.26434/chemrxiv.8326202.v1
   for GFN-FF:
   * S. Spicher and S. Grimme, Angew. Chem. Int. Ed., 2020, 59, 15665-15673.
     DOI: 10.1002/anie.202004239
   
   for ALPB and GBSA implicit solvation:
   * S. Ehlert, M. Stahn, S. Spicher, S. Grimme, J. Chem. Theory Comput.,
     2021, 17, 4250-4261. DOI: 10.1021/acs.jctc.1c00471
   
   for ddCOSMO and CPCM-X implicit solvation:
   * M. Stahn, S. Ehlert, S. Grimme, J. Phys. Chem. A,
     2023, XX, XXXX-XXXX. DOI: 10.1021/acs.jpca.3c04382
   
   for DFT-D4:
   * E. Caldeweyher, C. Bannwarth and S. Grimme, J. Chem. Phys., 2017,
     147, 034112. DOI: 10.1063/1.4993215
   * E. Caldeweyher, S. Ehlert, A. Hansen, H. Neugebauer, S. Spicher,
     C. Bannwarth and S. Grimme, J. Chem. Phys., 2019, 150, 154122.
     DOI: 10.1063/1.5090222
   * E. Caldeweyher, J.-M. Mewes, S. Ehlert and S. Grimme, Phys. Chem. Chem. Phys.
     2020, 22, 8499-8512. DOI: 10.1039/D0CP00502A
   
   for sTDA-xTB:
   * S. Grimme and C. Bannwarth, J. Chem. Phys., 2016, 145, 054103.
     DOI: 10.1063/1.4959605
   
   in the mass-spec context:
   * V. Asgeirsson, C. Bauer and S. Grimme, Chem. Sci., 2017, 8, 4879.
     DOI: 10.1039/c7sc00601b
   * J. Koopman and S. Grimme, ACS Omega 2019, 4, 12, 15120-15133.
     DOI: 10.1021/acsomega.9b02011
   
   for metadynamics refer to:
   * S. Grimme, J. Chem. Theory Comput., 2019, 155, 2847-2862
     DOI: 10.1021/acs.jctc.9b00143
   
   for SPH calculations refer to:
   * S. Spicher and S. Grimme, J. Chem. Theory Comput., 2021, 17, 1701-1714
     DOI: 10.1021/acs.jctc.0c01306
   
   for ONIOM refer to:
   * C. Plett, A. Katbashev, S. Ehlert, S. Grimme, M. Bursch,
     Phys. Chem. Chem. Phys., 2023, 25, 17860-17868. DOI: 10.1039/D3CP02178E
   
   for DIPRO refer to:
   * J. Kohn, N. Gildemeister, S. Grimme, D. Fazzi, A. Hansen,
     J. Chem. Phys., 2023, just accepted.
   
   for PTB refer to:
   * S. Grimme, M. Mueller, A. Hansen, J. Chem. Phys., 2023, 158, 124111.
     DOI: 10.1063/5.0137838
   
   with help from (in alphabetical order)
   P. Atkinson, C. Bannwarth, F. Bohle, G. Brandenburg, E. Caldeweyher
   M. Checinski, S. Dohm, S. Ehlert, S. Ehrlich, I. Gerasimov, C. Hölzer
   A. Katbashev, J. Kohn, J. Koopman, C. Lavigne, S. Lehtola, F. März, M. Müller,
   F. Musil, H. Neugebauer, J. Pisarek, C. Plett, P. Pracht, F. Pultar,
   J. Seibert, P. Shushkov, S. Spicher, M. Stahn, M. Steiner, T. Strunk,
   J. Stückrath, T. Rose, and J. Unsleber
   
 * started run on 2026/06/07 at 14:02:14.340     
   ID    Z sym.   atoms
    1    8 O      1
    2    7 N      2
    3    6 C      3-8
    4    1 H      9-15

           -------------------------------------------------
          |                Calculation Setup                |
           -------------------------------------------------

          program call               : xtb xtbopt.xyz --molden --alpb water
          hostname                   : fedora
          coordinate file            : xtbopt.xyz
          omp threads                :                    16


           -------------------------------------------------
          |                 G F N 2 - x T B                 |
           -------------------------------------------------

        Reference                      10.1021/acs.jctc.8b01176
      * Hamiltonian:
        H0-scaling (s, p, d)           1.850000    2.230000    2.230000
        zeta-weighting                 0.500000
      * Dispersion:
        s8                             2.700000
        a1                             0.520000
        a2                             5.000000
        s9                             5.000000
      * Repulsion:
        kExp                           1.500000    1.000000
        rExp                           1.000000
      * Coulomb:
        alpha                          2.000000
        third order                    shell-resolved
        anisotropic                    true
        a3                             3.000000
        a5                             4.000000
        cn-shift                       1.200000
        cn-exp                         4.000000
        max-rad                        5.000000

      * Solvation model:               ALPB
        Solvent                        water
        Parameter file                 internal GFN2-xTB/ALPB
        Dielectric constant                8.0200E+01
        Reference state                gsolv [1 M gas/solution]
        Free energy shift                  1.0808E-03 Eh       6.7819E-01 kcal/mol
        Temperature                        2.9815E+02 K
        Density                            1.0000E+00 kg/L
        Solvent mass                       1.8000E+01 g/mol
        Interaction kernel             P16
        Born radius scaling (c1)           1.4744E+00
        Born radii integrator          GBOBC
        Born offset                        0.0000E+00 a0       0.0000E+00 AA
        H-bond correction              true
        Ion screening                  false
        Surface tension                    1.0000E-05 Eh       1.5569E+01 dyn/cm
        Grid points                               230 per atom

          ...................................................
          :                      SETUP                      :
          :.................................................:
          :  # basis functions                  39          :
          :  # atomic orbitals                  39          :
          :  # shells                           23          :
          :  # electrons                        42          :
          :  max. iterations                   250          :
          :  Hamiltonian                  GFN2-xTB          :
          :  restarted?                      false          :
          :  GBSA solvation                   true          :
          :  PC potential                    false          :
          :  electronic temp.          300.0000000     K    :
          :  accuracy                    1.0000000          :
          :  -> integral cutoff          0.2500000E+02      :
          :  -> integral neglect         0.1000000E-07      :
          :  -> SCF convergence          0.1000000E-05 Eh   :
          :  -> wf. convergence          0.1000000E-03 e    :
          :  Broyden damping             0.4000000          :
          :  net charge                          0          :
          :  unpaired electrons                  0          :
          ...................................................

 iter      E             dE          RMSdq      gap      omega  full diag
   1    -23.7440386 -0.237440E+02  0.436E+00    2.79       0.0  T
   2    -23.7607887 -0.167500E-01  0.265E+00    3.46       1.0  T
   3    -23.7601804  0.608250E-03  0.700E-01    3.35       1.0  T
   4    -23.7617873 -0.160688E-02  0.227E-01    3.42       1.0  T
   5    -23.7621763 -0.389042E-03  0.798E-02    3.43       1.0  T
   6    -23.7621836 -0.732272E-05  0.345E-02    3.43       1.0  T
   7    -23.7621861 -0.246920E-05  0.165E-02    3.43       1.6  T
   8    -23.7621869 -0.806383E-06  0.424E-03    3.43       6.1  T
   9    -23.7621869 -0.196263E-07  0.220E-03    3.43      11.7  T
  10    -23.7621870 -0.202728E-07  0.801E-04    3.43      32.2  T
  11    -23.7621870 -0.196401E-08  0.304E-04    3.43      84.8  T

   *** convergence criteria satisfied after 11 iterations ***

         #    Occupation            Energy/Eh            Energy/eV
      -------------------------------------------------------------
         1        2.0000           -0.6960812             -18.9413
       ...           ...                  ...                  ...
        15        2.0000           -0.4698064             -12.7841
        16        2.0000           -0.4576092             -12.4522
        17        2.0000           -0.4445979             -12.0981
        18        2.0000           -0.4124505             -11.2233
        19        2.0000           -0.4107968             -11.1783
        20        2.0000           -0.3937779             -10.7152
        21        2.0000           -0.3378943              -9.1946 (HOMO)
        22                         -0.2119531              -5.7675 (LUMO)
        23                         -0.1862189              -5.0673
        24                         -0.0711942              -1.9373
        25                          0.0333061               0.9063
        26                          0.0815356               2.2187
       ...                                ...                  ...
        39                          0.6790271              18.4773
      -------------------------------------------------------------
                  HL-Gap            0.1259412 Eh            3.4270 eV
             Fermi-level           -0.2749237 Eh           -7.4811 eV

 SCC (total)                   0 d,  0 h,  0 min,  0.017 sec
 SCC setup                      ...        0 min,  0.001 sec (  5.568%)
 Dispersion                     ...        0 min,  0.001 sec (  3.278%)
 classical contributions        ...        0 min,  0.000 sec (  0.616%)
 integral evaluation            ...        0 min,  0.002 sec (  9.216%)
 iterations                     ...        0 min,  0.009 sec ( 55.994%)
 molecular gradient             ...        0 min,  0.004 sec ( 24.725%)
 printout                       ...        0 min,  0.000 sec (  0.480%)

         :::::::::::::::::::::::::::::::::::::::::::::::::::::
         ::                     SUMMARY                     ::
         :::::::::::::::::::::::::::::::::::::::::::::::::::::
         :: total energy             -23.399468764471 Eh    ::
         :: total w/o Gsasa/hb       -23.391090977312 Eh    ::
         :: gradient norm              0.000301601488 Eh/a0 ::
         :: HOMO-LUMO gap              3.427034418052 eV    ::
         ::.................................................::
         :: SCC energy               -23.762177556384 Eh    ::
         :: -> isotropic ES            0.042358743882 Eh    ::
         :: -> anisotropic ES          0.005029143239 Eh    ::
         :: -> anisotropic XC          0.008909105387 Eh    ::
         :: -> dispersion             -0.011080124978 Eh    ::
         :: -> Gsolv                  -0.015013702662 Eh    ::
         ::    -> Gelec               -0.006635915504 Eh    ::
         ::    -> Gsasa               -0.000809842237 Eh    ::
         ::    -> Ghb                 -0.008648704620 Eh    ::
         ::    -> Gshift               0.001080759698 Eh    ::
         :: repulsion energy           0.362708791914 Eh    ::
         :: add. restraining           0.000000000000 Eh    ::
         :: total charge               0.000000000000 e     ::
         :::::::::::::::::::::::::::::::::::::::::::::::::::::

           -------------------------------------------------
          |                Property Printout                |
           -------------------------------------------------

    * Orbital Energies and Occupations

         #    Occupation            Energy/Eh            Energy/eV
      -------------------------------------------------------------
         1        2.0000           -0.6960812             -18.9413
       ...           ...                  ...                  ...
         9        2.0000           -0.5302583             -14.4291
        10        2.0000           -0.5212914             -14.1851
        11        2.0000           -0.5067550             -13.7895
        12        2.0000           -0.5040841             -13.7168
        13        2.0000           -0.4779008             -13.0043
        14        2.0000           -0.4719203             -12.8416
        15        2.0000           -0.4698064             -12.7841
        16        2.0000           -0.4576092             -12.4522
        17        2.0000           -0.4445979             -12.0981
        18        2.0000           -0.4124505             -11.2233
        19        2.0000           -0.4107968             -11.1783
        20        2.0000           -0.3937779             -10.7152
        21        2.0000           -0.3378943              -9.1946 (HOMO)
        22                         -0.2119531              -5.7675 (LUMO)
        23                         -0.1862189              -5.0673
        24                         -0.0711942              -1.9373
        25                          0.0333061               0.9063
        26                          0.0815356               2.2187
        27                          0.1350136               3.6739
        28                          0.1602805               4.3615
        29                          0.1670403               4.5454
        30                          0.1965803               5.3492
        31                          0.2225518               6.0559
        32                          0.2462410               6.7006
       ...                                ...                  ...
        39                          0.6790271              18.4773
      -------------------------------------------------------------
                  HL-Gap            0.1259412 Eh            3.4270 eV
             Fermi-level           -0.2749237 Eh           -7.4811 eV

     #   Z          covCN         q      C6AA      α(0)
     1   8 O        1.658    -0.483    22.521     6.406
     2   7 N        2.643    -0.307    27.909     7.846
     3   6 C        2.896     0.072    26.392     8.423
     4   6 C        2.925    -0.075    29.859     8.961
     5   6 C        2.925    -0.073    29.827     8.956
     6   6 C        2.845     0.119    25.375     8.256
     7   6 C        2.917    -0.077    29.918     8.970
     8   6 C        2.918    -0.063    29.570     8.917
     9   1 H        0.926     0.031     2.570     2.507
    10   1 H        0.926     0.031     2.569     2.506
    11   1 H        0.926     0.030     2.591     2.517
    12   1 H        0.926     0.033     2.543     2.494
    13   1 H        0.861     0.201     1.100     1.643
    14   1 H        0.861     0.200     1.104     1.646
    15   1 H        0.805     0.360     0.566     1.181

 Mol. C6AA /au·bohr⁶  :       2622.453745
 Mol. C8AA /au·bohr⁸  :      62537.741007
 Mol. α(0) /au        :         81.229753


Wiberg/Mayer (AO) data.
largest (>0.10) Wiberg bond orders for each atom

 ---------------------------------------------------------------------------
     #   Z sym  total        # sym  WBO       # sym  WBO       # sym  WBO
 ---------------------------------------------------------------------------
     1   8 O    2.030 --     6 C    1.038    15 H    0.851
     2   7 N    3.280 --     3 C    1.194    14 H    0.942    13 H    0.942
     3   6 C    3.976 --     4 C    1.334     5 C    1.326     2 N    1.194
     4   6 C    3.985 --     7 C    1.456     3 C    1.334     9 H    0.969
                             8 C    0.103
     5   6 C    3.985 --     8 C    1.471     3 C    1.326    10 H    0.969
                             7 C    0.102
     6   6 C    3.932 --     7 C    1.376     8 C    1.364     1 O    1.038
     7   6 C    3.987 --     4 C    1.456     6 C    1.376    11 H    0.967
                             5 C    0.102
     8   6 C    3.989 --     5 C    1.471     6 C    1.364    12 H    0.970
                             4 C    0.103
     9   1 H    0.999 --     4 C    0.969
    10   1 H    0.999 --     5 C    0.969
    11   1 H    0.999 --     7 C    0.967
    12   1 H    0.998 --     8 C    0.970
    13   1 H    0.959 --     2 N    0.942
    14   1 H    0.959 --     2 N    0.942
    15   1 H    0.870 --     1 O    0.851
 ---------------------------------------------------------------------------

Topologies differ in total number of bonds
Writing topology from bond orders to xtbtopo.mol

MOs/occ written to file <molden.input>


molecular dipole:
                 x           y           z       tot (Debye)
 q only:        1.141      -0.572       0.002
   full:        1.171      -0.726       0.005       3.503
molecular quadrupole (traceless):
                xx          xy          yy          xz          yz          zz
 q only:        6.516       5.356      -1.301       0.021      -0.000      -5.215
  q+dip:        7.014       6.731       1.974       0.046      -0.001      -8.988
   full:        6.628       6.823       0.550       0.047      -0.001      -7.178


           -------------------------------------------------
          | TOTAL ENERGY              -23.399468764471 Eh   |
          | GRADIENT NORM               0.000301601488 Eh/α |
          | HOMO-LUMO GAP               3.427034418052 eV   |
           -------------------------------------------------

------------------------------------------------------------------------
 * finished run on 2026/06/07 at 14:02:14.384     
------------------------------------------------------------------------
 total:
 * wall-time:     0 d,  0 h,  0 min,  0.043 sec
 *  cpu-time:     0 d,  0 h,  0 min,  0.645 sec
 * ratio c/w:    14.849 speedup
 SCF:
 * wall-time:     0 d,  0 h,  0 min,  0.017 sec
 *  cpu-time:     0 d,  0 h,  0 min,  0.260 sec
 * ratio c/w:    15.428 speedup

