15
 energy: -23.399468764848 gnorm: 0.000303058454 xtb: 6.7.1 (edcfbbe)
O           -2.76252206873335        0.02843325300083        0.00028768934973
N            2.77949108694761        0.00415099677947       -0.00192518496465
C            1.41434703185815       -0.00250782488361       -0.00048900197653
C            0.70084158141461       -1.20345643716643       -0.00025205949495
C            0.68888239826701        1.19320777111197       -0.00025498448270
C           -1.38829661241417       -0.01554014762761        0.00008198610783
C           -0.68058329357663       -1.20953413859433       -0.00000939312002
C           -0.68997969832231        1.18664332604131       -0.00000572204299
H            1.23776593544101       -2.14056083243809       -0.00034796553311
H            1.21735672721314        2.13496664669047       -0.00035694211037
H           -1.20961013833582       -2.15241375416459        0.00011922765585
H           -1.24798361307384        2.11040450691194        0.00012263596037
H            3.28545976200026       -0.85946266803647        0.00179960651934
H            3.27641090876731        0.87294902309950        0.00176378883819
H           -3.11808000745298       -0.87167972072436        0.00026631929402
