      -----------------------------------------------------------      
     |                   =====================                   |     
     |                           x T B                           |     
     |                   =====================                   |     
     |                         S. Grimme                         |     
     |          Mulliken Center for Theoretical Chemistry        |     
     |                    University of Bonn                     |     
      -----------------------------------------------------------      

   * xtb version 6.7.1 (edcfbbe) compiled by 'conda@c0858423619e' on 2025-09-04

   xtb is free software: you can redistribute it and/or modify it under
   the terms of the GNU Lesser General Public License as published by
   the Free Software Foundation, either version 3 of the License, or
   (at your option) any later version.
   
   xtb is distributed in the hope that it will be useful,
   but WITHOUT ANY WARRANTY; without even the implied warranty of
   MERCHANTABILITY or FITNESS FOR A PARTICULAR PURPOSE.  See the
   GNU Lesser General Public License for more details.
   
   Cite this work as:
   * C. Bannwarth, E. Caldeweyher, S. Ehlert, A. Hansen, P. Pracht,
     J. Seibert, S. Spicher, S. Grimme, WIREs Comput. Mol. Sci., 2020, 11,
     e01493. DOI: 10.1002/wcms.1493
   
   for GFN2-xTB:
   * C. Bannwarth, S. Ehlert and S. Grimme., J. Chem. Theory Comput., 2019,
     15, 1652-1671. DOI: 10.1021/acs.jctc.8b01176
   for GFN1-xTB:
   * S. Grimme, C. Bannwarth, P. Shushkov, J. Chem. Theory Comput., 2017,
     13, 1989-2009. DOI: 10.1021/acs.jctc.7b00118
   for GFN0-xTB:
   * P. Pracht, E. Caldeweyher, S. Ehlert, S. Grimme, ChemRxiv, 2019, preprint.
     DOI: 10.26434/chemrxiv.8326202.v1
   for GFN-FF:
   * S. Spicher and S. Grimme, Angew. Chem. Int. Ed., 2020, 59, 15665-15673.
     DOI: 10.1002/anie.202004239
   
   for ALPB and GBSA implicit solvation:
   * S. Ehlert, M. Stahn, S. Spicher, S. Grimme, J. Chem. Theory Comput.,
     2021, 17, 4250-4261. DOI: 10.1021/acs.jctc.1c00471
   
   for ddCOSMO and CPCM-X implicit solvation:
   * M. Stahn, S. Ehlert, S. Grimme, J. Phys. Chem. A,
     2023, XX, XXXX-XXXX. DOI: 10.1021/acs.jpca.3c04382
   
   for DFT-D4:
   * E. Caldeweyher, C. Bannwarth and S. Grimme, J. Chem. Phys., 2017,
     147, 034112. DOI: 10.1063/1.4993215
   * E. Caldeweyher, S. Ehlert, A. Hansen, H. Neugebauer, S. Spicher,
     C. Bannwarth and S. Grimme, J. Chem. Phys., 2019, 150, 154122.
     DOI: 10.1063/1.5090222
   * E. Caldeweyher, J.-M. Mewes, S. Ehlert and S. Grimme, Phys. Chem. Chem. Phys.
     2020, 22, 8499-8512. DOI: 10.1039/D0CP00502A
   
   for sTDA-xTB:
   * S. Grimme and C. Bannwarth, J. Chem. Phys., 2016, 145, 054103.
     DOI: 10.1063/1.4959605
   
   in the mass-spec context:
   * V. Asgeirsson, C. Bauer and S. Grimme, Chem. Sci., 2017, 8, 4879.
     DOI: 10.1039/c7sc00601b
   * J. Koopman and S. Grimme, ACS Omega 2019, 4, 12, 15120-15133.
     DOI: 10.1021/acsomega.9b02011
   
   for metadynamics refer to:
   * S. Grimme, J. Chem. Theory Comput., 2019, 155, 2847-2862
     DOI: 10.1021/acs.jctc.9b00143
   
   for SPH calculations refer to:
   * S. Spicher and S. Grimme, J. Chem. Theory Comput., 2021, 17, 1701-1714
     DOI: 10.1021/acs.jctc.0c01306
   
   for ONIOM refer to:
   * C. Plett, A. Katbashev, S. Ehlert, S. Grimme, M. Bursch,
     Phys. Chem. Chem. Phys., 2023, 25, 17860-17868. DOI: 10.1039/D3CP02178E
   
   for DIPRO refer to:
   * J. Kohn, N. Gildemeister, S. Grimme, D. Fazzi, A. Hansen,
     J. Chem. Phys., 2023, just accepted.
   
   for PTB refer to:
   * S. Grimme, M. Mueller, A. Hansen, J. Chem. Phys., 2023, 158, 124111.
     DOI: 10.1063/5.0137838
   
   with help from (in alphabetical order)
   P. Atkinson, C. Bannwarth, F. Bohle, G. Brandenburg, E. Caldeweyher
   M. Checinski, S. Dohm, S. Ehlert, S. Ehrlich, I. Gerasimov, C. Hölzer
   A. Katbashev, J. Kohn, J. Koopman, C. Lavigne, S. Lehtola, F. März, M. Müller,
   F. Musil, H. Neugebauer, J. Pisarek, C. Plett, P. Pracht, F. Pultar,
   J. Seibert, P. Shushkov, S. Spicher, M. Stahn, M. Steiner, T. Strunk,
   J. Stückrath, T. Rose, and J. Unsleber
   
 * started run on 2026/06/07 at 14:02:19.272     
   ID    Z sym.   atoms
    1    8 O      1, 2
    2    7 N      3
    3    6 C      4-11
    4    1 H      12-20

           -------------------------------------------------
          |                Calculation Setup                |
           -------------------------------------------------

          program call               : xtb acetaminofen.xyz --opt
          hostname                   : fedora
          coordinate file            : acetaminofen.xyz
          omp threads                :                    16


           -------------------------------------------------
          |                 G F N 2 - x T B                 |
           -------------------------------------------------

        Reference                      10.1021/acs.jctc.8b01176
      * Hamiltonian:
        H0-scaling (s, p, d)           1.850000    2.230000    2.230000
        zeta-weighting                 0.500000
      * Dispersion:
        s8                             2.700000
        a1                             0.520000
        a2                             5.000000
        s9                             5.000000
      * Repulsion:
        kExp                           1.500000    1.000000
        rExp                           1.000000
      * Coulomb:
        alpha                          2.000000
        third order                    shell-resolved
        anisotropic                    true
        a3                             3.000000
        a5                             4.000000
        cn-shift                       1.200000
        cn-exp                         4.000000
        max-rad                        5.000000


          ...................................................
          :                      SETUP                      :
          :.................................................:
          :  # basis functions                  53          :
          :  # atomic orbitals                  53          :
          :  # shells                           31          :
          :  # electrons                        58          :
          :  max. iterations                   250          :
          :  Hamiltonian                  GFN2-xTB          :
          :  restarted?                      false          :
          :  GBSA solvation                  false          :
          :  PC potential                    false          :
          :  electronic temp.          300.0000000     K    :
          :  accuracy                    1.0000000          :
          :  -> integral cutoff          0.2500000E+02      :
          :  -> integral neglect         0.1000000E-07      :
          :  -> SCF convergence          0.1000000E-05 Eh   :
          :  -> wf. convergence          0.1000000E-03 e    :
          :  Broyden damping             0.4000000          :
          :  net charge                          0          :
          :  unpaired electrons                  0          :
          ...................................................

 iter      E             dE          RMSdq      gap      omega  full diag
   1    -33.1558011 -0.331558E+02  0.464E+00    3.24       0.0  T
   2    -33.2110052 -0.552042E-01  0.270E+00    3.58       1.0  T
   3    -33.2120488 -0.104358E-02  0.130E+00    3.62       1.0  T
   4    -33.2165740 -0.452518E-02  0.238E-01    3.51       1.0  T
   5    -33.2172666 -0.692629E-03  0.910E-02    3.55       1.0  T
   6    -33.2172719 -0.526819E-05  0.447E-02    3.56       1.0  T
   7    -33.2172909 -0.190080E-04  0.178E-02    3.56       1.3  T
   8    -33.2172926 -0.170225E-05  0.501E-03    3.56       4.5  T
   9    -33.2172926 -0.259953E-07  0.238E-03    3.56       9.4  T
  10    -33.2172927 -0.494158E-07  0.962E-04    3.56      23.2  T
  11    -33.2172927 -0.628644E-08  0.370E-04    3.56      60.5  T

   *** convergence criteria satisfied after 11 iterations ***

         #    Occupation            Energy/Eh            Energy/eV
      -------------------------------------------------------------
         1        2.0000           -0.7088768             -19.2895
       ...           ...                  ...                  ...
        23        2.0000           -0.4725601             -12.8590
        24        2.0000           -0.4565148             -12.4224
        25        2.0000           -0.4312571             -11.7351
        26        2.0000           -0.4307448             -11.7212
        27        2.0000           -0.4063753             -11.0580
        28        2.0000           -0.3946133             -10.7380
        29        2.0000           -0.3689411             -10.0394 (HOMO)
        30                         -0.2382670              -6.4836 (LUMO)
        31                         -0.2296984              -6.2504
        32                         -0.1911249              -5.2008
        33                         -0.0892308              -2.4281
        34                         -0.0075482              -0.2054
       ...                                ...                  ...
        53                          0.6484545              17.6453
      -------------------------------------------------------------
                  HL-Gap            0.1306741 Eh            3.5558 eV
             Fermi-level           -0.3036040 Eh           -8.2615 eV

 SCC (total)                   0 d,  0 h,  0 min,  0.261 sec
 SCC setup                      ...        0 min,  0.001 sec (  0.307%)
 Dispersion                     ...        0 min,  0.005 sec (  1.881%)
 classical contributions        ...        0 min,  0.002 sec (  0.746%)
 integral evaluation            ...        0 min,  0.005 sec (  2.034%)
 iterations                     ...        0 min,  0.241 sec ( 92.373%)
 molecular gradient             ...        0 min,  0.007 sec (  2.589%)
 printout                       ...        0 min,  0.000 sec (  0.057%)

         :::::::::::::::::::::::::::::::::::::::::::::::::::::
         ::                     SUMMARY                     ::
         :::::::::::::::::::::::::::::::::::::::::::::::::::::
         :: total energy             -32.779142723788 Eh    ::
         :: gradient norm              0.054878999599 Eh/a0 ::
         :: HOMO-LUMO gap              3.555822721546 eV    ::
         ::.................................................::
         :: SCC energy               -33.217333808803 Eh    ::
         :: -> isotropic ES            0.057568266366 Eh    ::
         :: -> anisotropic ES          0.004231623626 Eh    ::
         :: -> anisotropic XC          0.010602206651 Eh    ::
         :: -> dispersion             -0.015986889811 Eh    ::
         :: repulsion energy           0.438191085016 Eh    ::
         :: add. restraining           0.000000000000 Eh    ::
         :: total charge              -0.000000000000 e     ::
         :::::::::::::::::::::::::::::::::::::::::::::::::::::

      ----------------------------------------------------------- 
     |                   =====================                   |
     |                        A N C O P T                        |
     |                   =====================                   |
     |               Approximate Normal Coordinate               |
     |                Rational Function Optimizer                |
      ----------------------------------------------------------- 
      ----------------------------------------------------------- 
     |                   =====================                   |
     |                        A N C O P T                        |
     |                   =====================                   |
     |               Approximate Normal Coordinate               |
     |                Rational Function Optimizer                |
      ----------------------------------------------------------- 

          ...................................................
          :                      SETUP                      :
          :.................................................:
          :   optimization level            normal          :
          :   max. optcycles                   200          :
          :   ANC micro-cycles                  20          :
          :   degrees of freedom                54          :
          :.................................................:
          :   RF solver                   davidson          :
          :   write xtbopt.log                true          :
          :   linear?                        false          :
          :   energy convergence         0.5000000E-05 Eh   :
          :   grad. convergence          0.1000000E-02 Eh/α :
          :   maxmium RF displ.          1.0000000          :
          :   Hlow (freq-cutoff)         0.1000000E-01      :
          :   Hmax (freq-cutoff)         5.0000000          :
          :   S6 in model hess.         20.0000000          :
          ...................................................

generating ANC from exact Hessian ...
Using Lindh-Hessian (1995)
 Shifting diagonal of input Hessian by    8.4049238059985022E-003
 Lowest  eigenvalues of input Hessian
    0.000000    0.000000    0.000000    0.000000    0.000000    0.000000
    0.010000    0.011657    0.012662    0.015136    0.021931    0.024395
    0.026129    0.027620    0.032352    0.046761    0.048705    0.050053
 Highest eigenvalues
    1.648482    1.886141    1.938084    2.010408    2.119618    2.255317


........................................................................
.............................. CYCLE    1 ..............................
........................................................................

 iter      E             dE          RMSdq      gap      omega  full diag
   1    -33.2172927 -0.332173E+02  0.137E-04    3.56       0.0  T
   2    -33.2172927 -0.575682E-10  0.800E-05    3.56     279.4  T
   3    -33.2172927 -0.186304E-10  0.519E-05    3.56     431.2  T
     SCC iter.                  ...        0 min,  0.004 sec
     gradient                   ...        0 min,  0.006 sec
 * total energy  :   -32.7791427 Eh     change       -0.6889280E-09 Eh
   gradient norm :     0.0548803 Eh/α   predicted     0.0000000E+00 (-100.00%)
   displ. norm   :     0.1857909 α      lambda       -0.5445834E-02
   maximum displ.:     0.0975323 α      in ANC's #10, #3, #29, ...

........................................................................
.............................. CYCLE    2 ..............................
........................................................................

 iter      E             dE          RMSdq      gap      omega  full diag
   1    -33.2412399 -0.332412E+02  0.192E-01    3.71       0.0  T
   2    -33.2412875 -0.475394E-04  0.113E-01    3.70       1.0  T
   3    -33.2412798  0.770338E-05  0.427E-02    3.72       1.0  T
   4    -33.2412958 -0.160534E-04  0.782E-03    3.71       2.9  T
   5    -33.2412964 -0.609424E-06  0.407E-03    3.71       5.5  T
   6    -33.2412965 -0.597219E-07  0.228E-03    3.71       9.8  T
   7    -33.2412965 -0.280031E-07  0.542E-04    3.71      41.3  T
   8    -33.2412965 -0.475332E-09  0.244E-04    3.71      91.6  T
     SCC iter.                  ...        0 min,  0.008 sec
     gradient                   ...        0 min,  0.006 sec
 * total energy  :   -32.7827537 Eh     change       -0.3610939E-02 Eh
   gradient norm :     0.0188296 Eh/α   predicted    -0.2817282E-02 ( -21.98%)
   displ. norm   :     0.1747208 α      lambda       -0.1180862E-02
   maximum displ.:     0.1396163 α      in ANC's #3, #10, #20, ...

........................................................................
.............................. CYCLE    3 ..............................
........................................................................

 iter      E             dE          RMSdq      gap      omega  full diag
   1    -33.2489686 -0.332490E+02  0.117E-01    3.75       0.0  T
   2    -33.2489846 -0.160640E-04  0.666E-02    3.76       1.0  T
   3    -33.2489837  0.878117E-06  0.218E-02    3.77       1.0  T
   4    -33.2489860 -0.226438E-05  0.464E-03    3.76       4.8  T
   5    -33.2489863 -0.304889E-06  0.214E-03    3.76      10.4  T
   6    -33.2489863 -0.502644E-08  0.114E-03    3.76      19.7  T
   7    -33.2489863 -0.103768E-07  0.240E-04    3.76      93.0  T
   8    -33.2489863 -0.204359E-09  0.125E-04    3.76     178.9  T
     SCC iter.                  ...        0 min,  0.008 sec
     gradient                   ...        0 min,  0.006 sec
 * total energy  :   -32.7834431 Eh     change       -0.6894864E-03 Eh
   gradient norm :     0.0065949 Eh/α   predicted    -0.6086160E-03 ( -11.73%)
   displ. norm   :     0.1103967 α      lambda       -0.1870429E-03
   maximum displ.:     0.1030944 α      in ANC's #3, #10, #20, ...

........................................................................
.............................. CYCLE    4 ..............................
........................................................................

 iter      E             dE          RMSdq      gap      omega  full diag
   1    -33.2482856 -0.332483E+02  0.402E-02    3.75       0.0  T
   2    -33.2482873 -0.178666E-05  0.233E-02    3.76       1.0  T
   3    -33.2482873  0.314711E-07  0.664E-03    3.76       3.4  T
   4    -33.2482875 -0.146361E-06  0.153E-03    3.76      14.6  T
   5    -33.2482875 -0.280383E-07  0.741E-04    3.76      30.2  T
   6    -33.2482875 -0.190659E-08  0.365E-04    3.76      61.3  T
     SCC iter.                  ...        0 min,  0.006 sec
     gradient                   ...        0 min,  0.006 sec
 * total energy  :   -32.7835760 Eh     change       -0.1328154E-03 Eh
   gradient norm :     0.0033554 Eh/α   predicted    -0.9466391E-04 ( -28.73%)
   displ. norm   :     0.0830021 α      lambda       -0.7737365E-04
   maximum displ.:     0.0785087 α      in ANC's #3, #10, #17, ...

........................................................................
.............................. CYCLE    5 ..............................
........................................................................

 iter      E             dE          RMSdq      gap      omega  full diag
   1    -33.2470001 -0.332470E+02  0.251E-02    3.75       0.0  T
   2    -33.2470006 -0.524320E-06  0.150E-02    3.75       1.5  T
   3    -33.2470003  0.290335E-06  0.533E-03    3.75       4.2  T
   4    -33.2470007 -0.418888E-06  0.122E-03    3.75      18.3  T
   5    -33.2470007 -0.160705E-07  0.579E-04    3.75      38.6  T
   6    -33.2470007 -0.717769E-09  0.260E-04    3.75      85.9  T
     SCC iter.                  ...        0 min,  0.006 sec
     gradient                   ...        0 min,  0.006 sec
 * total energy  :   -32.7836249 Eh     change       -0.4888530E-04 Eh
   gradient norm :     0.0016968 Eh/α   predicted    -0.3900900E-04 ( -20.20%)
   displ. norm   :     0.0486511 α      lambda       -0.1206313E-04
   maximum displ.:     0.0457107 α      in ANC's #3, #8, #10, ...

........................................................................
.............................. CYCLE    6 ..............................
........................................................................

 iter      E             dE          RMSdq      gap      omega  full diag
   1    -33.2469181 -0.332469E+02  0.140E-02    3.75       0.0  T
   2    -33.2469182 -0.177391E-06  0.812E-03    3.75       2.8  T
   3    -33.2469181  0.115501E-06  0.359E-03    3.75       6.2  T
   4    -33.2469183 -0.183571E-06  0.661E-04    3.75      33.8  T
   5    -33.2469183 -0.370469E-08  0.329E-04    3.75      68.0  T
     SCC iter.                  ...        0 min,  0.005 sec
     gradient                   ...        0 min,  0.006 sec
 * total energy  :   -32.7836347 Eh     change       -0.9880715E-05 Eh
   gradient norm :     0.0009569 Eh/α   predicted    -0.6069325E-05 ( -38.57%)
   displ. norm   :     0.0105870 α      lambda       -0.1961419E-05
   maximum displ.:     0.0081318 α      in ANC's #3, #8, #5, ...

........................................................................
.............................. CYCLE    7 ..............................
........................................................................

 iter      E             dE          RMSdq      gap      omega  full diag
   1    -33.2473230 -0.332473E+02  0.523E-03    3.75       0.0  T
   2    -33.2473231 -0.534328E-07  0.294E-03    3.75       7.6  T
   3    -33.2473231  0.310557E-09  0.120E-03    3.75      18.6  T
   4    -33.2473231 -0.406379E-08  0.213E-04    3.75     105.1  T
   5    -33.2473231 -0.700290E-09  0.796E-05    3.75     280.8  T
     SCC iter.                  ...        0 min,  0.011 sec
     gradient                   ...        0 min,  0.006 sec
 * total energy  :   -32.7836365 Eh     change       -0.1750930E-05 Eh
   gradient norm :     0.0002438 Eh/α   predicted    -0.9839180E-06 ( -43.81%)
   displ. norm   :     0.0058379 α      lambda       -0.2596288E-06
   maximum displ.:     0.0044552 α      in ANC's #3, #5, #7, ...

   *** GEOMETRY OPTIMIZATION CONVERGED AFTER 7 ITERATIONS ***

------------------------------------------------------------------------
 total energy gain   :        -0.0044938 Eh       -2.8199 kcal/mol
 total RMSD          :         0.1228861 a0        0.0650 Å
 total power (kW/mol):        -1.6854801 (step) -101.2622 (real)
------------------------------------------------------------------------

 ANCopt (total)                0 d,  0 h,  0 min,  0.117 sec
 optimizer setup                ...        0 min,  0.000 sec (  0.057%)
 model hessian                  ...        0 min,  0.002 sec (  1.565%)
 ANC generation                 ...        0 min,  0.000 sec (  0.345%)
 coordinate transformation      ...        0 min,  0.000 sec (  0.036%)
 single point calculation       ...        0 min,  0.112 sec ( 96.083%)
 optimization log               ...        0 min,  0.000 sec (  0.396%)
 hessian update                 ...        0 min,  0.001 sec (  0.538%)
 rational function              ...        0 min,  0.000 sec (  0.331%)

================
 final structure:
================
20
 xtb: 6.7.1 (edcfbbe)
O            3.86673124593012        0.37419067559506        0.00004679995034
O           -2.60688208754890        1.37442259828134        0.00252710781807
N           -1.58403583298601       -0.66502467593516        0.00056269875650
C           -0.22042082128792       -0.34330032396411        0.00001806782892
C            0.24757222884182        0.96592536192993        0.00057791699500
C            0.69790452737570       -1.39226760000204       -0.00067986192579
C            1.60734916043879        1.21377614141073        0.00056589132882
C            2.05393553223885       -1.14364517288303       -0.00067224476973
C            2.52062013240082        0.16725430800779        0.00000646560342
C           -2.66517208192150        0.16631532940837        0.00215364840421
C           -3.97451802251788       -0.59983587985639        0.00098282617775
H           -0.45365739524173        1.78274480329632        0.00113401193153
H            0.34482111458620       -2.41423414110968       -0.00107539401701
H           -1.77379411289134       -1.65773460366935       -0.00061547968164
H            1.96179646568323        2.23595520804708        0.00099880488555
H            2.76817454107702       -1.95117125341180       -0.00114682349447
H           -4.05160281410841       -1.20997430864439       -0.89678801987188
H           -4.79882520349235        0.10667926736309        0.02282774786055
H           -4.03474296298294       -1.24726264069142        0.87337389499063
H            4.04934638640642        1.32138690682766        0.00060194122925

 Bond Distances (Angstroems)
 ---------------------------
O1-C9=1.3619         O1-H20=0.9646        O2-C10=1.2095        N3-C4=1.4011         N3-C10=1.3638        N3-H14=1.0107        
C4-N3=1.4011         C4-C5=1.3904         C4-C6=1.3942         C5-C4=1.3904         C5-C7=1.3822         C5-H12=1.0765        
C6-C4=1.3942         C6-C8=1.3786         C6-H13=1.0812        C7-C5=1.3822         C7-C9=1.3890         C7-H15=1.0819        
C8-C6=1.3786         C8-C9=1.3915         C8-H16=1.0781        C9-O1=1.3619         C9-C7=1.3890         C9-C8=1.3915         
C10-O2=1.2095        C10-N3=1.3638        C10-C11=1.5170       C11-C10=1.5170       C11-H17=1.0882       C11-H18=1.0859       
C11-H19=1.0881       H12-C5=1.0765        H13-C6=1.0812        H14-N3=1.0107        H15-C7=1.0819        H16-C8=1.0781        
H17-C11=1.0882       H18-C11=1.0859       H19-C11=1.0881       H20-O1=0.9646        
 C  H  Rav=1.0828 sigma=0.0043  Rmin=1.0765  Rmax=1.0882     7
 C  C  Rav=1.4061 sigma=0.0456  Rmin=1.3786  Rmax=1.5170     7
 N  H  Rav=1.0107 sigma=0.0000  Rmin=1.0107  Rmax=1.0107     1
 N  C  Rav=1.3824 sigma=0.0186  Rmin=1.3638  Rmax=1.4011     2
 O  H  Rav=0.9646 sigma=0.0000  Rmin=0.9646  Rmax=0.9646     1
 O  C  Rav=1.2857 sigma=0.0762  Rmin=1.2095  Rmax=1.3619     2

 selected bond angles (degree)
 --------------------
H20-O1-C9=109.65               C10-N3-C4=129.17               H14-N3-C4=114.10               H14-N3-C10=116.74              
C5-C4-N3=122.95                C6-C4-N3=117.93                C6-C4-C5=119.13                C7-C5-C4=120.00                
H12-C5-C4=119.68               H12-C5-C7=120.32               C8-C6-C4=120.81                H13-C6-C4=119.74               
H13-C6-C8=119.45               C9-C7-C5=120.78                H15-C7-C5=119.45               H15-C7-C9=119.77               
C9-C8-C6=119.99                H16-C8-C6=121.10               H16-C8-C9=118.91               C7-C9-O1=122.37                
C8-C9-O1=118.34                C8-C9-C7=119.29                N3-C10-O2=124.80               C11-C10-O2=123.10              
C11-C10-N3=112.11              

 selected dihedral angles (degree)
 ---------------------------------
C5-C4-N3-C10=359.97           C5-C4-N3-H14=179.96           C6-C4-N3-C10=179.95           C6-C4-N3-H14=359.94           
C7-C5-C4-N3=179.97            C7-C5-C4-C6=  0.00            H12-C5-C4-N3=  0.00           H12-C5-C4-C6=180.00           
C8-C6-C4-N3=180.03            C8-C6-C4-C5=  0.00            H13-C6-C4-N3=  0.00           H13-C6-C4-C5=180.00           
C9-C7-C5-C4=  0.00            C9-C7-C5-H12=179.99           H15-C7-C5-C4=180.00           H15-C7-C5-H12=  0.00          
C9-C8-C6-C4=  0.00            C9-C8-C6-H13=180.01           H16-C8-C6-C4=180.00           H16-C8-C6-H13=  0.00          
C7-C9-O1-H20=  0.00           C8-C9-O1-H20=180.00           O1-C9-C7-C5=180.00            O1-C9-C7-H15=  0.00           
C8-C9-C7-C5=  0.00            C8-C9-C7-H15=180.01           O1-C9-C8-C6=180.00            O1-C9-C8-H16=  0.00           
C7-C9-C8-C6=  0.00            C7-C9-C8-H16=180.00           O2-C10-N3-C4=  0.05           O2-C10-N3-H14=180.07          
C11-C10-N3-C4=179.95          C11-C10-N3-H14=359.97         
           -------------------------------------------------
          |                Final Singlepoint                |
           -------------------------------------------------

          ...................................................
          :                      SETUP                      :
          :.................................................:
          :  # basis functions                  53          :
          :  # atomic orbitals                  53          :
          :  # shells                           31          :
          :  # electrons                        58          :
          :  max. iterations                   250          :
          :  Hamiltonian                  GFN2-xTB          :
          :  restarted?                      false          :
          :  GBSA solvation                  false          :
          :  PC potential                    false          :
          :  electronic temp.          300.0000000     K    :
          :  accuracy                    1.0000000          :
          :  -> integral cutoff          0.2500000E+02      :
          :  -> integral neglect         0.1000000E-07      :
          :  -> SCF convergence          0.1000000E-05 Eh   :
          :  -> wf. convergence          0.1000000E-03 e    :
          :  Broyden damping             0.4000000          :
          :  net charge                          0          :
          :  unpaired electrons                  0          :
          ...................................................

 iter      E             dE          RMSdq      gap      omega  full diag
   1    -33.2473231 -0.332473E+02  0.367E-05    3.75       0.0  T
   2    -33.2473231 -0.660805E-11  0.240E-05    3.75     930.3  T
   3    -33.2473231 -0.411404E-11  0.141E-05    3.75    1586.5  T

   *** convergence criteria satisfied after 3 iterations ***

         #    Occupation            Energy/Eh            Energy/eV
      -------------------------------------------------------------
         1        2.0000           -0.7104324             -19.3319
       ...           ...                  ...                  ...
        23        2.0000           -0.4744392             -12.9101
        24        2.0000           -0.4606331             -12.5345
        25        2.0000           -0.4322633             -11.7625
        26        2.0000           -0.4294131             -11.6849
        27        2.0000           -0.4091566             -11.1337
        28        2.0000           -0.3937425             -10.7143
        29        2.0000           -0.3705877             -10.0842 (HOMO)
        30                         -0.2328091              -6.3351 (LUMO)
        31                         -0.2269669              -6.1761
        32                         -0.1863711              -5.0714
        33                         -0.0857108              -2.3323
        34                          0.0083773               0.2280
       ...                                ...                  ...
        53                          0.6784211              18.4608
      -------------------------------------------------------------
                  HL-Gap            0.1377786 Eh            3.7491 eV
             Fermi-level           -0.3016984 Eh           -8.2096 eV

 SCC (total)                   0 d,  0 h,  0 min,  0.014 sec
 SCC setup                      ...        0 min,  0.000 sec (  1.687%)
 Dispersion                     ...        0 min,  0.000 sec (  1.768%)
 classical contributions        ...        0 min,  0.000 sec (  0.817%)
 integral evaluation            ...        0 min,  0.003 sec ( 18.418%)
 iterations                     ...        0 min,  0.005 sec ( 32.737%)
 molecular gradient             ...        0 min,  0.006 sec ( 43.984%)
 printout                       ...        0 min,  0.000 sec (  0.481%)

         :::::::::::::::::::::::::::::::::::::::::::::::::::::
         ::                     SUMMARY                     ::
         :::::::::::::::::::::::::::::::::::::::::::::::::::::
         :: total energy             -32.783636482188 Eh    ::
         :: gradient norm              0.000243830373 Eh/a0 ::
         :: HOMO-LUMO gap              3.749147194896 eV    ::
         ::.................................................::
         :: SCC energy               -33.247367803523 Eh    ::
         :: -> isotropic ES            0.057748005435 Eh    ::
         :: -> anisotropic ES          0.004058942040 Eh    ::
         :: -> anisotropic XC          0.009575181516 Eh    ::
         :: -> dispersion             -0.016032196009 Eh    ::
         :: repulsion energy           0.463731321335 Eh    ::
         :: add. restraining           0.000000000000 Eh    ::
         :: total charge               0.000000000000 e     ::
         :::::::::::::::::::::::::::::::::::::::::::::::::::::

           -------------------------------------------------
          |                Property Printout                |
           -------------------------------------------------

    * Orbital Energies and Occupations

         #    Occupation            Energy/Eh            Energy/eV
      -------------------------------------------------------------
         1        2.0000           -0.7104324             -19.3319
       ...           ...                  ...                  ...
        17        2.0000           -0.4998315             -13.6011
        18        2.0000           -0.4920268             -13.3887
        19        2.0000           -0.4916513             -13.3785
        20        2.0000           -0.4838775             -13.1670
        21        2.0000           -0.4814521             -13.1010
        22        2.0000           -0.4746774             -12.9166
        23        2.0000           -0.4744392             -12.9101
        24        2.0000           -0.4606331             -12.5345
        25        2.0000           -0.4322633             -11.7625
        26        2.0000           -0.4294131             -11.6849
        27        2.0000           -0.4091566             -11.1337
        28        2.0000           -0.3937425             -10.7143
        29        2.0000           -0.3705877             -10.0842 (HOMO)
        30                         -0.2328091              -6.3351 (LUMO)
        31                         -0.2269669              -6.1761
        32                         -0.1863711              -5.0714
        33                         -0.0857108              -2.3323
        34                          0.0083773               0.2280
        35                          0.0699349               1.9030
        36                          0.0864605               2.3527
        37                          0.1280258               3.4838
        38                          0.1514894               4.1222
        39                          0.1536784               4.1818
        40                          0.1646059               4.4792
       ...                                ...                  ...
        53                          0.6784211              18.4608
      -------------------------------------------------------------
                  HL-Gap            0.1377786 Eh            3.7491 eV
             Fermi-level           -0.3016984 Eh           -8.2096 eV

     #   Z          covCN         q      C6AA      α(0)
     1   8 O        1.660    -0.393    20.712     6.144
     2   8 O        0.858    -0.415    21.988     6.287
     3   7 N        2.697    -0.163    24.528     7.356
     4   6 C        2.904     0.064    26.558     8.450
     5   6 C        2.920    -0.048    29.187     8.859
     6   6 C        2.926    -0.055    29.373     8.888
     7   6 C        2.920    -0.068    29.702     8.937
     8   6 C        2.919    -0.053    29.313     8.878
     9   6 C        2.845     0.140    24.946     8.186
    10   6 C        2.745     0.280    22.252     7.724
    11   6 C        3.758    -0.146    23.361     6.891
    12   1 H        0.926     0.080     1.982     2.201
    13   1 H        0.925     0.032     2.564     2.504
    14   1 H        0.860     0.174     1.248     1.750
    15   1 H        0.925     0.034     2.531     2.488
    16   1 H        0.926     0.053     2.284     2.363
    17   1 H        0.925     0.056     2.243     2.342
    18   1 H        0.925     0.073     2.056     2.242
    19   1 H        0.925     0.055     2.254     2.348
    20   1 H        0.805     0.300     0.722     1.334

 Mol. C6AA /au·bohr⁶  :       4614.802547
 Mol. C8AA /au·bohr⁸  :     108981.656970
 Mol. α(0) /au        :        106.172042


Wiberg/Mayer (AO) data.
largest (>0.10) Wiberg bond orders for each atom

 ---------------------------------------------------------------------------
     #   Z sym  total        # sym  WBO       # sym  WBO       # sym  WBO
 ---------------------------------------------------------------------------
     1   8 O    2.111 --     9 C    1.068    20 H    0.889
     2   8 O    2.029 --    10 C    1.713     3 N    0.168
     3   7 N    3.488 --    10 C    1.199     4 C    1.067    14 H    0.937
                             2 O    0.168
     4   6 C    3.961 --     5 C    1.374     6 C    1.361     3 N    1.067
     5   6 C    3.986 --     7 C    1.452     4 C    1.374    12 H    0.959
                             8 C    0.105
     6   6 C    3.989 --     8 C    1.469     4 C    1.361    13 H    0.967
                             7 C    0.102
     7   6 C    3.988 --     5 C    1.452     9 C    1.374    15 H    0.966
                             6 C    0.102
     8   6 C    3.988 --     6 C    1.469     9 C    1.357    16 H    0.968
                             5 C    0.105
     9   6 C    3.939 --     7 C    1.374     8 C    1.357     1 O    1.068
    10   6 C    3.947 --     2 O    1.713     3 N    1.199    11 C    0.978
    11   6 C    3.993 --    18 H    0.983    10 C    0.978    19 H    0.972
                            17 H    0.971
    12   1 H    0.994 --     5 C    0.959
    13   1 H    0.999 --     6 C    0.967
    14   1 H    0.969 --     3 N    0.937
    15   1 H    0.998 --     7 C    0.966
    16   1 H    0.997 --     8 C    0.968
    17   1 H    0.996 --    11 C    0.971
    18   1 H    0.994 --    11 C    0.983
    19   1 H    0.997 --    11 C    0.972
    20   1 H    0.910 --     1 O    0.889
 ---------------------------------------------------------------------------

Topologies differ in total number of bonds
Writing topology from bond orders to xtbtopo.mol

molecular dipole:
                 x           y           z       tot (Debye)
 q only:        0.026      -0.849      -0.002
   full:       -0.074      -1.001      -0.003       2.551
molecular quadrupole (traceless):
                xx          xy          yy          xz          yz          zz
 q only:        0.599      14.886       1.377       0.022       0.002      -1.976
  q+dip:        0.125      19.063       4.452       0.034       0.006      -4.576
   full:       -0.614      19.444       2.627       0.035       0.003      -2.012

           -------------------------------------------------
          |                Geometry Summary                 |
           -------------------------------------------------

      molecular mass/u    :      151.1628670
   center of mass at/Å    :       -0.0321256       0.0264917       0.0005546
  moments of inertia/u·Å² :        0.1397953E+03   0.9127092E+03   0.1049344E+04
rotational constants/cm⁻¹ :        0.1205880E+00   0.1846988E-01   0.1606492E-01

 * 19 selected distances

     #   Z          #   Z                                           value/Å
     3   7 N        4   6 C                                       1.4010543 (max)
     4   6 C        5   6 C                                       1.3903561
     4   6 C        6   6 C                                       1.3941501
     5   6 C        7   6 C                                       1.3821808
     6   6 C        8   6 C                                       1.3786347
     1   8 O        9   6 C                                       1.3619244
     7   6 C        9   6 C                                       1.3889825
     8   6 C        9   6 C                                       1.3914930
     2   8 O       10   6 C                                       1.2095128
     3   7 N       10   6 C                                       1.3638125
     5   6 C       12   1 H                                       1.0765303
     6   6 C       13   1 H                                       1.0812418
     3   7 N       14   1 H                                       1.0106843
     7   6 C       15   1 H                                       1.0818888
     8   6 C       16   1 H                                       1.0780706
    11   6 C       17   1 H                                       1.0882112
    11   6 C       18   1 H                                       1.0858745
    11   6 C       19   1 H                                       1.0880509
     1   8 O       20   1 H                                       0.9646396 (min)

 * 6 distinct bonds (by element types)

   Z      Z             #   av. dist./Å        max./Å        min./Å
   1 H    6 C           7     1.0828383     1.0882112     1.0765303
   6 C    6 C           6     1.3876329     1.3941501     1.3786347
   1 H    7 N           1     1.0106843     1.0106843     1.0106843
   6 C    7 N           2     1.3824334     1.4010543     1.3638125
   1 H    8 O           1     0.9646396     0.9646396     0.9646396
   6 C    8 O           2     1.2857186     1.3619244     1.2095128


optimized geometry written to: xtbopt.xyz


           -------------------------------------------------
          | TOTAL ENERGY              -32.783636482188 Eh   |
          | GRADIENT NORM               0.000243830373 Eh/α |
          | HOMO-LUMO GAP               3.749147194896 eV   |
           -------------------------------------------------

------------------------------------------------------------------------
 * finished run on 2026/06/07 at 14:02:19.694     
------------------------------------------------------------------------
 total:
 * wall-time:     0 d,  0 h,  0 min,  0.423 sec
 *  cpu-time:     0 d,  0 h,  0 min,  6.262 sec
 * ratio c/w:    14.819 speedup
 SCF:
 * wall-time:     0 d,  0 h,  0 min,  0.261 sec
 *  cpu-time:     0 d,  0 h,  0 min,  3.774 sec
 * ratio c/w:    14.461 speedup
 ANC optimizer:
 * wall-time:     0 d,  0 h,  0 min,  0.132 sec
 *  cpu-time:     0 d,  0 h,  0 min,  2.035 sec
 * ratio c/w:    15.459 speedup

