      -----------------------------------------------------------      
     |                   =====================                   |     
     |                           x T B                           |     
     |                   =====================                   |     
     |                         S. Grimme                         |     
     |          Mulliken Center for Theoretical Chemistry        |     
     |                    University of Bonn                     |     
      -----------------------------------------------------------      

   * xtb version 6.7.1 (edcfbbe) compiled by 'conda@c0858423619e' on 2025-09-04

   xtb is free software: you can redistribute it and/or modify it under
   the terms of the GNU Lesser General Public License as published by
   the Free Software Foundation, either version 3 of the License, or
   (at your option) any later version.
   
   xtb is distributed in the hope that it will be useful,
   but WITHOUT ANY WARRANTY; without even the implied warranty of
   MERCHANTABILITY or FITNESS FOR A PARTICULAR PURPOSE.  See the
   GNU Lesser General Public License for more details.
   
   Cite this work as:
   * C. Bannwarth, E. Caldeweyher, S. Ehlert, A. Hansen, P. Pracht,
     J. Seibert, S. Spicher, S. Grimme, WIREs Comput. Mol. Sci., 2020, 11,
     e01493. DOI: 10.1002/wcms.1493
   
   for GFN2-xTB:
   * C. Bannwarth, S. Ehlert and S. Grimme., J. Chem. Theory Comput., 2019,
     15, 1652-1671. DOI: 10.1021/acs.jctc.8b01176
   for GFN1-xTB:
   * S. Grimme, C. Bannwarth, P. Shushkov, J. Chem. Theory Comput., 2017,
     13, 1989-2009. DOI: 10.1021/acs.jctc.7b00118
   for GFN0-xTB:
   * P. Pracht, E. Caldeweyher, S. Ehlert, S. Grimme, ChemRxiv, 2019, preprint.
     DOI: 10.26434/chemrxiv.8326202.v1
   for GFN-FF:
   * S. Spicher and S. Grimme, Angew. Chem. Int. Ed., 2020, 59, 15665-15673.
     DOI: 10.1002/anie.202004239
   
   for ALPB and GBSA implicit solvation:
   * S. Ehlert, M. Stahn, S. Spicher, S. Grimme, J. Chem. Theory Comput.,
     2021, 17, 4250-4261. DOI: 10.1021/acs.jctc.1c00471
   
   for ddCOSMO and CPCM-X implicit solvation:
   * M. Stahn, S. Ehlert, S. Grimme, J. Phys. Chem. A,
     2023, XX, XXXX-XXXX. DOI: 10.1021/acs.jpca.3c04382
   
   for DFT-D4:
   * E. Caldeweyher, C. Bannwarth and S. Grimme, J. Chem. Phys., 2017,
     147, 034112. DOI: 10.1063/1.4993215
   * E. Caldeweyher, S. Ehlert, A. Hansen, H. Neugebauer, S. Spicher,
     C. Bannwarth and S. Grimme, J. Chem. Phys., 2019, 150, 154122.
     DOI: 10.1063/1.5090222
   * E. Caldeweyher, J.-M. Mewes, S. Ehlert and S. Grimme, Phys. Chem. Chem. Phys.
     2020, 22, 8499-8512. DOI: 10.1039/D0CP00502A
   
   for sTDA-xTB:
   * S. Grimme and C. Bannwarth, J. Chem. Phys., 2016, 145, 054103.
     DOI: 10.1063/1.4959605
   
   in the mass-spec context:
   * V. Asgeirsson, C. Bauer and S. Grimme, Chem. Sci., 2017, 8, 4879.
     DOI: 10.1039/c7sc00601b
   * J. Koopman and S. Grimme, ACS Omega 2019, 4, 12, 15120-15133.
     DOI: 10.1021/acsomega.9b02011
   
   for metadynamics refer to:
   * S. Grimme, J. Chem. Theory Comput., 2019, 155, 2847-2862
     DOI: 10.1021/acs.jctc.9b00143
   
   for SPH calculations refer to:
   * S. Spicher and S. Grimme, J. Chem. Theory Comput., 2021, 17, 1701-1714
     DOI: 10.1021/acs.jctc.0c01306
   
   for ONIOM refer to:
   * C. Plett, A. Katbashev, S. Ehlert, S. Grimme, M. Bursch,
     Phys. Chem. Chem. Phys., 2023, 25, 17860-17868. DOI: 10.1039/D3CP02178E
   
   for DIPRO refer to:
   * J. Kohn, N. Gildemeister, S. Grimme, D. Fazzi, A. Hansen,
     J. Chem. Phys., 2023, just accepted.
   
   for PTB refer to:
   * S. Grimme, M. Mueller, A. Hansen, J. Chem. Phys., 2023, 158, 124111.
     DOI: 10.1063/5.0137838
   
   with help from (in alphabetical order)
   P. Atkinson, C. Bannwarth, F. Bohle, G. Brandenburg, E. Caldeweyher
   M. Checinski, S. Dohm, S. Ehlert, S. Ehrlich, I. Gerasimov, C. Hölzer
   A. Katbashev, J. Kohn, J. Koopman, C. Lavigne, S. Lehtola, F. März, M. Müller,
   F. Musil, H. Neugebauer, J. Pisarek, C. Plett, P. Pracht, F. Pultar,
   J. Seibert, P. Shushkov, S. Spicher, M. Stahn, M. Steiner, T. Strunk,
   J. Stückrath, T. Rose, and J. Unsleber
   
 * started run on 2026/06/07 at 13:50:41.043     
   ID    Z sym.   atoms
    1    8 O      1-3
    2    6 C      4-7
    3    1 H      8-13

           -------------------------------------------------
          |                Calculation Setup                |
           -------------------------------------------------

          program call               : xtb xtbopt.xyz --molden
          hostname                   : fedora
          coordinate file            : xtbopt.xyz
          omp threads                :                    16


           -------------------------------------------------
          |                 G F N 2 - x T B                 |
           -------------------------------------------------

        Reference                      10.1021/acs.jctc.8b01176
      * Hamiltonian:
        H0-scaling (s, p, d)           1.850000    2.230000    2.230000
        zeta-weighting                 0.500000
      * Dispersion:
        s8                             2.700000
        a1                             0.520000
        a2                             5.000000
        s9                             5.000000
      * Repulsion:
        kExp                           1.500000    1.000000
        rExp                           1.000000
      * Coulomb:
        alpha                          2.000000
        third order                    shell-resolved
        anisotropic                    true
        a3                             3.000000
        a5                             4.000000
        cn-shift                       1.200000
        cn-exp                         4.000000
        max-rad                        5.000000


          ...................................................
          :                      SETUP                      :
          :.................................................:
          :  # basis functions                  34          :
          :  # atomic orbitals                  34          :
          :  # shells                           20          :
          :  # electrons                        40          :
          :  max. iterations                   250          :
          :  Hamiltonian                  GFN2-xTB          :
          :  restarted?                      false          :
          :  GBSA solvation                  false          :
          :  PC potential                    false          :
          :  electronic temp.          300.0000000     K    :
          :  accuracy                    1.0000000          :
          :  -> integral cutoff          0.2500000E+02      :
          :  -> integral neglect         0.1000000E-07      :
          :  -> SCF convergence          0.1000000E-05 Eh   :
          :  -> wf. convergence          0.1000000E-03 e    :
          :  Broyden damping             0.4000000          :
          :  net charge                          0          :
          :  unpaired electrons                  0          :
          ...................................................

 iter      E             dE          RMSdq      gap      omega  full diag
   1    -23.9972648 -0.239973E+02  0.515E+00    4.83       0.0  T
   2    -24.0611911 -0.639263E-01  0.262E+00    3.75       1.0  T
   3    -24.0677548 -0.656371E-02  0.162E+00    4.19       1.0  T
   4    -24.0722981 -0.454334E-02  0.126E-01    3.98       1.0  T
   5    -24.0723622 -0.640520E-04  0.658E-02    4.00       1.0  T
   6    -24.0723657 -0.355383E-05  0.232E-02    3.99       1.2  T
   7    -24.0723696 -0.384059E-05  0.857E-03    4.00       3.2  T
   8    -24.0723702 -0.606833E-06  0.146E-03    4.00      19.0  T
   9    -24.0723702 -0.871049E-08  0.608E-04    4.00      45.6  T
  10    -24.0723702 -0.245738E-08  0.928E-05    4.00     299.0  T

   *** convergence criteria satisfied after 10 iterations ***

         #    Occupation            Energy/Eh            Energy/eV
      -------------------------------------------------------------
         1        2.0000           -0.7698330             -20.9482
       ...           ...                  ...                  ...
        14        2.0000           -0.5021558             -13.6644
        15        2.0000           -0.5012842             -13.6406
        16        2.0000           -0.4974143             -13.5353
        17        2.0000           -0.4954533             -13.4820
        18        2.0000           -0.4909823             -13.3603
        19        2.0000           -0.4530016             -12.3268
        20        2.0000           -0.4223614             -11.4930 (HOMO)
        21                         -0.2755388              -7.4978 (LUMO)
        22                         -0.2235771              -6.0838
        23                         -0.0000579              -0.0016
        24                          0.1324677               3.6046
        25                          0.1445076               3.9323
       ...                                ...                  ...
        34                          0.7100852              19.3224
      -------------------------------------------------------------
                  HL-Gap            0.1468226 Eh            3.9952 eV
             Fermi-level           -0.3489501 Eh           -9.4954 eV

 SCC (total)                   0 d,  0 h,  0 min,  0.106 sec
 SCC setup                      ...        0 min,  0.000 sec (  0.181%)
 Dispersion                     ...        0 min,  0.000 sec (  0.231%)
 classical contributions        ...        0 min,  0.000 sec (  0.089%)
 integral evaluation            ...        0 min,  0.001 sec (  1.288%)
 iterations                     ...        0 min,  0.093 sec ( 88.198%)
 molecular gradient             ...        0 min,  0.010 sec (  9.586%)
 printout                       ...        0 min,  0.000 sec (  0.375%)

         :::::::::::::::::::::::::::::::::::::::::::::::::::::
         ::                     SUMMARY                     ::
         :::::::::::::::::::::::::::::::::::::::::::::::::::::
         :: total energy             -23.830979371146 Eh    ::
         :: gradient norm              0.000690619412 Eh/a0 ::
         :: HOMO-LUMO gap              3.995245638828 eV    ::
         ::.................................................::
         :: SCC energy               -24.072361847225 Eh    ::
         :: -> isotropic ES            0.067189154203 Eh    ::
         :: -> anisotropic ES          0.001384852185 Eh    ::
         :: -> anisotropic XC          0.001919540058 Eh    ::
         :: -> dispersion             -0.006809256143 Eh    ::
         :: repulsion energy           0.241382476079 Eh    ::
         :: add. restraining           0.000000000000 Eh    ::
         :: total charge               0.000000000000 e     ::
         :::::::::::::::::::::::::::::::::::::::::::::::::::::

           -------------------------------------------------
          |                Property Printout                |
           -------------------------------------------------

    * Orbital Energies and Occupations

         #    Occupation            Energy/Eh            Energy/eV
      -------------------------------------------------------------
         1        2.0000           -0.7698330             -20.9482
       ...           ...                  ...                  ...
         8        2.0000           -0.6104778             -16.6119
         9        2.0000           -0.5785544             -15.7433
        10        2.0000           -0.5776440             -15.7185
        11        2.0000           -0.5640909             -15.3497
        12        2.0000           -0.5388813             -14.6637
        13        2.0000           -0.5088812             -13.8474
        14        2.0000           -0.5021558             -13.6644
        15        2.0000           -0.5012842             -13.6406
        16        2.0000           -0.4974143             -13.5353
        17        2.0000           -0.4954533             -13.4820
        18        2.0000           -0.4909823             -13.3603
        19        2.0000           -0.4530016             -12.3268
        20        2.0000           -0.4223614             -11.4930 (HOMO)
        21                         -0.2755388              -7.4978 (LUMO)
        22                         -0.2235771              -6.0838
        23                         -0.0000579              -0.0016
        24                          0.1324677               3.6046
        25                          0.1445076               3.9323
        26                          0.1470935               4.0026
        27                          0.1476908               4.0189
        28                          0.1749536               4.7607
        29                          0.1949290               5.3043
        30                          0.1964241               5.3450
        31                          0.2232301               6.0744
       ...                                ...                  ...
        34                          0.7100852              19.3224
      -------------------------------------------------------------
                  HL-Gap            0.1468226 Eh            3.9952 eV
             Fermi-level           -0.3489501 Eh           -9.4954 eV

     #   Z          covCN         q      C6AA      α(0)
     1   8 O        1.708    -0.278    18.614     5.825
     2   8 O        0.856    -0.333    20.390     6.054
     3   8 O        0.856    -0.333    20.390     6.054
     4   6 C        2.696     0.369    20.749     7.455
     5   6 C        2.696     0.369    20.749     7.455
     6   6 C        3.754    -0.151    23.475     6.909
     7   6 C        3.754    -0.151    23.475     6.909
     8   1 H        0.925     0.083     1.950     2.184
     9   1 H        0.925     0.086     1.920     2.167
    10   1 H        0.925     0.086     1.921     2.168
    11   1 H        0.925     0.086     1.921     2.167
    12   1 H        0.925     0.083     1.950     2.184
    13   1 H        0.925     0.086     1.920     2.167

 Mol. C6AA /au·bohr⁶  :       1628.055636
 Mol. C8AA /au·bohr⁸  :      35893.910697
 Mol. α(0) /au        :         59.697344


Wiberg/Mayer (AO) data.
largest (>0.10) Wiberg bond orders for each atom

 ---------------------------------------------------------------------------
     #   Z sym  total        # sym  WBO       # sym  WBO       # sym  WBO
 ---------------------------------------------------------------------------
     1   8 O    2.344 --     5 C    1.012     4 C    1.012     2 O    0.135
                             3 O    0.135
     2   8 O    2.118 --     4 C    1.853     1 O    0.135
     3   8 O    2.118 --     5 C    1.853     1 O    0.135
     4   6 C    3.909 --     2 O    1.853     1 O    1.012     6 C    0.993
     5   6 C    3.909 --     3 O    1.853     1 O    1.012     7 C    0.993
     6   6 C    3.989 --     4 C    0.993     8 H    0.981    10 H    0.960
                             9 H    0.959
     7   6 C    3.989 --     5 C    0.993    12 H    0.981    11 H    0.960
                            13 H    0.959
     8   1 H    0.992 --     6 C    0.981
     9   1 H    0.993 --     6 C    0.959
    10   1 H    0.993 --     6 C    0.960
    11   1 H    0.993 --     7 C    0.960
    12   1 H    0.992 --     7 C    0.981
    13   1 H    0.993 --     7 C    0.959
 ---------------------------------------------------------------------------

Topologies differ in total number of bonds
Writing topology from bond orders to xtbtopo.mol

MOs/occ written to file <molden.input>


molecular dipole:
                 x           y           z       tot (Debye)
 q only:       -0.000       1.801       0.000
   full:       -0.000       2.081       0.001       5.289
molecular quadrupole (traceless):
                xx          xy          yy          xz          yz          zz
 q only:        6.591       0.000      -5.433       0.018       0.001      -1.157
  q+dip:        5.635       0.000      -6.788       0.025       0.001       1.153
   full:        5.427       0.000      -7.743       0.024       0.001       2.316


           -------------------------------------------------
          | TOTAL ENERGY              -23.830979371146 Eh   |
          | GRADIENT NORM               0.000690619412 Eh/α |
          | HOMO-LUMO GAP               3.995245638828 eV   |
           -------------------------------------------------

------------------------------------------------------------------------
 * finished run on 2026/06/07 at 13:50:41.184     
------------------------------------------------------------------------
 total:
 * wall-time:     0 d,  0 h,  0 min,  0.141 sec
 *  cpu-time:     0 d,  0 h,  0 min,  2.046 sec
 * ratio c/w:    14.553 speedup
 SCF:
 * wall-time:     0 d,  0 h,  0 min,  0.106 sec
 *  cpu-time:     0 d,  0 h,  0 min,  1.553 sec
 * ratio c/w:    14.633 speedup

