      -----------------------------------------------------------      
     |                   =====================                   |     
     |                           x T B                           |     
     |                   =====================                   |     
     |                         S. Grimme                         |     
     |          Mulliken Center for Theoretical Chemistry        |     
     |                    University of Bonn                     |     
      -----------------------------------------------------------      

   * xtb version 6.7.1 (edcfbbe) compiled by 'conda@c0858423619e' on 2025-09-04

   xtb is free software: you can redistribute it and/or modify it under
   the terms of the GNU Lesser General Public License as published by
   the Free Software Foundation, either version 3 of the License, or
   (at your option) any later version.
   
   xtb is distributed in the hope that it will be useful,
   but WITHOUT ANY WARRANTY; without even the implied warranty of
   MERCHANTABILITY or FITNESS FOR A PARTICULAR PURPOSE.  See the
   GNU Lesser General Public License for more details.
   
   Cite this work as:
   * C. Bannwarth, E. Caldeweyher, S. Ehlert, A. Hansen, P. Pracht,
     J. Seibert, S. Spicher, S. Grimme, WIREs Comput. Mol. Sci., 2020, 11,
     e01493. DOI: 10.1002/wcms.1493
   
   for GFN2-xTB:
   * C. Bannwarth, S. Ehlert and S. Grimme., J. Chem. Theory Comput., 2019,
     15, 1652-1671. DOI: 10.1021/acs.jctc.8b01176
   for GFN1-xTB:
   * S. Grimme, C. Bannwarth, P. Shushkov, J. Chem. Theory Comput., 2017,
     13, 1989-2009. DOI: 10.1021/acs.jctc.7b00118
   for GFN0-xTB:
   * P. Pracht, E. Caldeweyher, S. Ehlert, S. Grimme, ChemRxiv, 2019, preprint.
     DOI: 10.26434/chemrxiv.8326202.v1
   for GFN-FF:
   * S. Spicher and S. Grimme, Angew. Chem. Int. Ed., 2020, 59, 15665-15673.
     DOI: 10.1002/anie.202004239
   
   for ALPB and GBSA implicit solvation:
   * S. Ehlert, M. Stahn, S. Spicher, S. Grimme, J. Chem. Theory Comput.,
     2021, 17, 4250-4261. DOI: 10.1021/acs.jctc.1c00471
   
   for ddCOSMO and CPCM-X implicit solvation:
   * M. Stahn, S. Ehlert, S. Grimme, J. Phys. Chem. A,
     2023, XX, XXXX-XXXX. DOI: 10.1021/acs.jpca.3c04382
   
   for DFT-D4:
   * E. Caldeweyher, C. Bannwarth and S. Grimme, J. Chem. Phys., 2017,
     147, 034112. DOI: 10.1063/1.4993215
   * E. Caldeweyher, S. Ehlert, A. Hansen, H. Neugebauer, S. Spicher,
     C. Bannwarth and S. Grimme, J. Chem. Phys., 2019, 150, 154122.
     DOI: 10.1063/1.5090222
   * E. Caldeweyher, J.-M. Mewes, S. Ehlert and S. Grimme, Phys. Chem. Chem. Phys.
     2020, 22, 8499-8512. DOI: 10.1039/D0CP00502A
   
   for sTDA-xTB:
   * S. Grimme and C. Bannwarth, J. Chem. Phys., 2016, 145, 054103.
     DOI: 10.1063/1.4959605
   
   in the mass-spec context:
   * V. Asgeirsson, C. Bauer and S. Grimme, Chem. Sci., 2017, 8, 4879.
     DOI: 10.1039/c7sc00601b
   * J. Koopman and S. Grimme, ACS Omega 2019, 4, 12, 15120-15133.
     DOI: 10.1021/acsomega.9b02011
   
   for metadynamics refer to:
   * S. Grimme, J. Chem. Theory Comput., 2019, 155, 2847-2862
     DOI: 10.1021/acs.jctc.9b00143
   
   for SPH calculations refer to:
   * S. Spicher and S. Grimme, J. Chem. Theory Comput., 2021, 17, 1701-1714
     DOI: 10.1021/acs.jctc.0c01306
   
   for ONIOM refer to:
   * C. Plett, A. Katbashev, S. Ehlert, S. Grimme, M. Bursch,
     Phys. Chem. Chem. Phys., 2023, 25, 17860-17868. DOI: 10.1039/D3CP02178E
   
   for DIPRO refer to:
   * J. Kohn, N. Gildemeister, S. Grimme, D. Fazzi, A. Hansen,
     J. Chem. Phys., 2023, just accepted.
   
   for PTB refer to:
   * S. Grimme, M. Mueller, A. Hansen, J. Chem. Phys., 2023, 158, 124111.
     DOI: 10.1063/5.0137838
   
   with help from (in alphabetical order)
   P. Atkinson, C. Bannwarth, F. Bohle, G. Brandenburg, E. Caldeweyher
   M. Checinski, S. Dohm, S. Ehlert, S. Ehrlich, I. Gerasimov, C. Hölzer
   A. Katbashev, J. Kohn, J. Koopman, C. Lavigne, S. Lehtola, F. März, M. Müller,
   F. Musil, H. Neugebauer, J. Pisarek, C. Plett, P. Pracht, F. Pultar,
   J. Seibert, P. Shushkov, S. Spicher, M. Stahn, M. Steiner, T. Strunk,
   J. Stückrath, T. Rose, and J. Unsleber
   
 * started run on 2026/06/07 at 22:15:44.180     
   ID    Z sym.   atoms
    1    6 C      1, 2, 5, 6, 9-12, 14, 15
    2    8 O      3, 4, 7, 13
    3    7 N      8
    4    1 H      16-28

           -------------------------------------------------
          |                Calculation Setup                |
           -------------------------------------------------

          program call               : xtb xtbopt.xyz --hess
          hostname                   : fedora
          coordinate file            : xtbopt.xyz
          omp threads                :                    16


           -------------------------------------------------
          |                 G F N 2 - x T B                 |
           -------------------------------------------------

        Reference                      10.1021/acs.jctc.8b01176
      * Hamiltonian:
        H0-scaling (s, p, d)           1.850000    2.230000    2.230000
        zeta-weighting                 0.500000
      * Dispersion:
        s8                             2.700000
        a1                             0.520000
        a2                             5.000000
        s9                             5.000000
      * Repulsion:
        kExp                           1.500000    1.000000
        rExp                           1.000000
      * Coulomb:
        alpha                          2.000000
        third order                    shell-resolved
        anisotropic                    true
        a3                             3.000000
        a5                             4.000000
        cn-shift                       1.200000
        cn-exp                         4.000000
        max-rad                        5.000000


          ...................................................
          :                      SETUP                      :
          :.................................................:
          :  # basis functions                  73          :
          :  # atomic orbitals                  73          :
          :  # shells                           43          :
          :  # electrons                        82          :
          :  max. iterations                   250          :
          :  Hamiltonian                  GFN2-xTB          :
          :  restarted?                      false          :
          :  GBSA solvation                  false          :
          :  PC potential                    false          :
          :  electronic temp.          300.0000000     K    :
          :  accuracy                    1.0000000          :
          :  -> integral cutoff          0.2500000E+02      :
          :  -> integral neglect         0.1000000E-07      :
          :  -> SCF convergence          0.1000000E-05 Eh   :
          :  -> wf. convergence          0.1000000E-03 e    :
          :  Broyden damping             0.4000000          :
          :  net charge                          0          :
          :  unpaired electrons                  0          :
          ...................................................

 iter      E             dE          RMSdq      gap      omega  full diag
   1    -47.7493778 -0.477494E+02  0.441E+00    3.08       0.0  T
   2    -47.8125901 -0.632123E-01  0.254E+00    2.97       1.0  T
   3    -47.8130670 -0.476912E-03  0.116E+00    3.22       1.0  T
   4    -47.8200774 -0.701040E-02  0.170E-01    2.80       1.0  T
   5    -47.8202985 -0.221031E-03  0.798E-02    2.82       1.0  T
   6    -47.8203510 -0.524975E-04  0.398E-02    2.83       1.0  T
   7    -47.8203671 -0.161577E-04  0.142E-02    2.83       1.3  T
   8    -47.8203683 -0.122307E-05  0.484E-03    2.83       3.9  T
   9    -47.8203685 -0.129833E-06  0.212E-03    2.83       8.9  T
  10    -47.8203685 -0.288709E-07  0.741E-04    2.83      25.5  T
  11    -47.8203685 -0.183727E-08  0.266E-04    2.83      71.1  T

   *** convergence criteria satisfied after 11 iterations ***

         #    Occupation            Energy/Eh            Energy/eV
      -------------------------------------------------------------
         1        2.0000           -0.7617089             -20.7272
       ...           ...                  ...                  ...
        35        2.0000           -0.4493185             -12.2266
        36        2.0000           -0.4422021             -12.0329
        37        2.0000           -0.4317770             -11.7492
        38        2.0000           -0.4168853             -11.3440
        39        2.0000           -0.4124889             -11.2244
        40        2.0000           -0.3981309             -10.8337
        41        2.0000           -0.3511073              -9.5541 (HOMO)
        42                         -0.2471833              -6.7262 (LUMO)
        43                         -0.2163059              -5.8860
        44                         -0.1966575              -5.3513
        45                         -0.0788823              -2.1465
        46                         -0.0336719              -0.9163
       ...                                ...                  ...
        73                          0.6774111              18.4333
      -------------------------------------------------------------
                  HL-Gap            0.1039239 Eh            2.8279 eV
             Fermi-level           -0.2991453 Eh           -8.1402 eV

 SCC (total)                   0 d,  0 h,  0 min,  1.273 sec
 SCC setup                      ...        0 min,  0.001 sec (  0.050%)
 Dispersion                     ...        0 min,  0.001 sec (  0.098%)
 classical contributions        ...        0 min,  0.000 sec (  0.014%)
 integral evaluation            ...        0 min,  0.003 sec (  0.228%)
 iterations                     ...        0 min,  1.256 sec ( 98.689%)
 molecular gradient             ...        0 min,  0.011 sec (  0.889%)
 printout                       ...        0 min,  0.000 sec (  0.030%)

         :::::::::::::::::::::::::::::::::::::::::::::::::::::
         ::                     SUMMARY                     ::
         :::::::::::::::::::::::::::::::::::::::::::::::::::::
         :: total energy             -47.254127478567 Eh    ::
         :: gradient norm              0.000410021351 Eh/a0 ::
         :: HOMO-LUMO gap              2.827914159743 eV    ::
         ::.................................................::
         :: SCC energy               -47.820420810085 Eh    ::
         :: -> isotropic ES            0.102653090961 Eh    ::
         :: -> anisotropic ES          0.000167448687 Eh    ::
         :: -> anisotropic XC          0.009133773370 Eh    ::
         :: -> dispersion             -0.024579476988 Eh    ::
         :: repulsion energy           0.566293331519 Eh    ::
         :: add. restraining           0.000000000000 Eh    ::
         :: total charge              -0.000000000000 e     ::
         :::::::::::::::::::::::::::::::::::::::::::::::::::::

           ------------------------------------------------- 
          |                Numerical Hessian                |
           ------------------------------------------------- 
step length          :   0.00500
SCC accuracy         :   0.30000
Hessian scale factor :   1.00000
frozen atoms in %    :   0.00000    0
RMS gradient         :   0.00041
estimated CPU  time      3.10 min
estimated wall time      0.24 min

writing file <hessian>.

 projected vibrational frequencies (cm⁻¹)
eigval :       -0.00    -0.00    -0.00     0.00     0.00     0.00
eigval :       13.61    24.17    63.13    73.25   104.20   117.10
eigval :      154.55   168.43   189.72   245.07   279.44   328.12
eigval :      338.26   365.02   378.63   392.23   410.61   415.77
eigval :      446.93   476.94   491.36   501.12   535.78   562.31
eigval :      597.34   613.95   660.61   703.26   772.19   800.23
eigval :      832.26   853.44   861.39   891.25   908.64   915.03
eigval :      965.59   990.16  1003.18  1004.94  1020.39  1058.09
eigval :     1109.13  1130.66  1150.50  1151.85  1192.51  1211.53
eigval :     1226.36  1275.76  1289.61  1299.97  1350.55  1364.13
eigval :     1375.54  1383.41  1437.67  1440.21  1441.13  1460.68
eigval :     1469.63  1499.92  1586.84  1626.19  1763.17  3031.28
eigval :     3040.57  3047.30  3052.79  3055.22  3069.35  3072.63
eigval :     3079.17  3110.20  3124.29  3390.72  3437.83  3528.70
           -------------------------------------------------
          |                Property Printout                |
           -------------------------------------------------

    * Orbital Energies and Occupations

         #    Occupation            Energy/Eh            Energy/eV
      -------------------------------------------------------------
         1        2.0000           -0.7617071             -20.7271
       ...           ...                  ...                  ...
        29        2.0000           -0.4836383             -13.1605
        30        2.0000           -0.4809189             -13.0865
        31        2.0000           -0.4773907             -12.9905
        32        2.0000           -0.4721109             -12.8468
        33        2.0000           -0.4700583             -12.7909
        34        2.0000           -0.4647687             -12.6470
        35        2.0000           -0.4493176             -12.2266
        36        2.0000           -0.4422004             -12.0329
        37        2.0000           -0.4317748             -11.7492
        38        2.0000           -0.4168848             -11.3440
        39        2.0000           -0.4124884             -11.2244
        40        2.0000           -0.3981306             -10.8337
        41        2.0000           -0.3511068              -9.5541 (HOMO)
        42                         -0.2471818              -6.7262 (LUMO)
        43                         -0.2163054              -5.8860
        44                         -0.1966571              -5.3513
        45                         -0.0788818              -2.1465
        46                         -0.0336695              -0.9162
        47                          0.0079120               0.2153
        48                          0.0719182               1.9570
        49                          0.0766330               2.0853
        50                          0.0948928               2.5822
        51                          0.1255623               3.4167
        52                          0.1324462               3.6040
       ...                                ...                  ...
        73                          0.6774115              18.4333
      -------------------------------------------------------------
                  HL-Gap            0.1039250 Eh            2.8279 eV
             Fermi-level           -0.2991443 Eh           -8.1401 eV

     #   Z          covCN         q      C6AA      α(0)
     1   6 C        3.754    -0.149    23.430     6.902
     2   6 C        2.702     0.374    20.662     7.440
     3   8 O        0.856    -0.420    22.081     6.300
     4   8 O        1.703    -0.304    19.063     5.895
     5   6 C        3.598     0.344    16.010     5.790
     6   6 C        3.753    -0.138    23.216     6.871
     7   8 O        1.657    -0.452    21.891     6.316
     8   7 N        2.694    -0.221    25.833     7.549
     9   6 C        2.901     0.071    26.408     8.426
    10   6 C        2.922    -0.056    29.381     8.889
    11   6 C        2.919    -0.070    29.753     8.945
    12   6 C        2.845     0.133    25.079     8.207
    13   8 O        1.659    -0.400    20.845     6.163
    14   6 C        2.919    -0.053    29.304     8.877
    15   6 C        2.929    -0.058    29.438     8.898
    16   1 H        0.925     0.081     1.971     2.195
    17   1 H        0.925     0.085     1.926     2.170
    18   1 H        0.925     0.081     1.966     2.193
    19   1 H        0.925     0.063     2.165     2.301
    20   1 H        0.925     0.059     2.210     2.325
    21   1 H        0.925     0.068     2.107     2.270
    22   1 H        0.804     0.332     0.633     1.250
    23   1 H        0.860     0.178     1.224     1.733
    24   1 H        0.926     0.044     2.394     2.420
    25   1 H        0.925     0.027     2.631     2.536
    26   1 H        0.805     0.296     0.734     1.346
    27   1 H        0.926     0.051     2.312     2.378
    28   1 H        0.926     0.034     2.536     2.490

 Mol. C6AA /au·bohr⁶  :       8253.727461
 Mol. C8AA /au·bohr⁸  :     189726.327926
 Mol. α(0) /au        :        139.074922


Wiberg/Mayer (AO) data.
largest (>0.10) Wiberg bond orders for each atom

 ---------------------------------------------------------------------------
     #   Z sym  total        # sym  WBO       # sym  WBO       # sym  WBO
 ---------------------------------------------------------------------------
     1   6 C    3.989 --     2 C    0.991    16 H    0.981    18 H    0.966
                            17 H    0.957
     2   6 C    3.909 --     3 O    1.734     4 O    1.136     1 C    0.991
     3   8 O    2.035 --     2 C    1.734     4 O    0.168
     4   8 O    2.289 --     2 C    1.136     5 C    0.872     3 O    0.168
     5   6 C    3.910 --     7 O    1.012     8 N    1.003     6 C    0.971
                             4 O    0.872
     6   6 C    3.989 --    20 H    0.984    19 H    0.981    21 H    0.976
                             5 C    0.971
     7   8 O    1.993 --     5 C    1.012    22 H    0.849
     8   7 N    3.260 --     9 C    1.094     5 C    1.003    23 H    0.932
     9   6 C    3.963 --    10 C    1.372    15 C    1.346     8 N    1.094
    10   6 C    3.988 --    11 C    1.441     9 C    1.372    24 H    0.964
                            14 C    0.104
    11   6 C    3.987 --    10 C    1.441    12 C    1.383    25 H    0.967
                            15 C    0.104
    12   6 C    3.937 --    11 C    1.383    14 C    1.354    13 O    1.057
    13   8 O    2.097 --    12 C    1.057    26 H    0.892
    14   6 C    3.989 --    15 C    1.476    12 C    1.354    27 H    0.968
                            10 C    0.104
    15   6 C    3.987 --    14 C    1.476     9 C    1.346    28 H    0.968
                            11 C    0.104
    16   1 H    0.993 --     1 C    0.981
    17   1 H    0.993 --     1 C    0.957
    18   1 H    0.993 --     1 C    0.966
    19   1 H    0.996 --     6 C    0.981
    20   1 H    0.996 --     6 C    0.984
    21   1 H    0.995 --     6 C    0.976
    22   1 H    0.890 --     7 O    0.849
    23   1 H    0.968 --     8 N    0.932
    24   1 H    0.998 --    10 C    0.964
    25   1 H    0.999 --    11 C    0.967
    26   1 H    0.913 --    13 O    0.892
    27   1 H    0.997 --    14 C    0.968
    28   1 H    0.999 --    15 C    0.968
 ---------------------------------------------------------------------------

Topologies differ in total number of bonds
Writing topology from bond orders to xtbtopo.mol

molecular dipole:
                 x           y           z       tot (Debye)
 q only:       -0.566       0.009       0.556
   full:       -0.774      -0.223       0.491       2.397
molecular quadrupole (traceless):
                xx          xy          yy          xz          yz          zz
 q only:       27.102     -14.463     -14.641      -9.378       3.052     -12.461
  q+dip:       35.597     -16.124     -19.896      -7.918       3.182     -15.701
   full:       35.126     -15.738     -21.626      -7.500       3.054     -13.500

           -------------------------------------------------
          |               Frequency Printout                |
           -------------------------------------------------
 projected vibrational frequencies (cm⁻¹)
eigval :       -0.00    -0.00    -0.00     0.00     0.00     0.00
eigval :       13.61    24.17    63.13    73.25   104.20   117.10
eigval :      154.55   168.43   189.72   245.07   279.44   328.12
eigval :      338.26   365.02   378.63   392.23   410.61   415.77
eigval :      446.93   476.94   491.36   501.12   535.78   562.31
eigval :      597.34   613.95   660.61   703.26   772.19   800.23
eigval :      832.26   853.44   861.39   891.25   908.64   915.03
eigval :      965.59   990.16  1003.18  1004.94  1020.39  1058.09
eigval :     1109.13  1130.66  1150.50  1151.85  1192.51  1211.53
eigval :     1226.36  1275.76  1289.61  1299.97  1350.55  1364.13
eigval :     1375.54  1383.41  1437.67  1440.21  1441.13  1460.68
Refinement of some symmetry elements was terminated before convergence was reached.
Some symmetry elements may remain unidentified.
Molecule has no symmetry elements
It seems to be the C1 point group
eigval :     1469.63  1499.92  1586.84  1626.19  1763.17  3031.28
eigval :     3040.57  3047.30  3052.79  3055.22  3069.35  3072.63
eigval :     3079.17  3110.20  3124.29  3390.72  3437.83  3528.70
 reduced masses (amu)
   1: 12.70   2: 12.55   3: 12.27   4: 12.88   5: 12.63   6: 11.12   7:  1.44   8: 12.39
   9: 10.36  10: 11.93  11: 13.12  12: 12.39  13: 11.14  14:  2.81  15: 11.33  16: 13.56
  17: 12.10  18: 10.31  19: 11.52  20:  8.12  21:  8.36  22: 10.49  23:  4.15  24: 10.13
  25:  6.33  26: 11.42  27:  5.96  28:  9.05  29: 11.15  30: 11.49  31: 10.73  32: 11.32
  33: 11.47  34: 10.77  35: 11.91  36:  5.11  37: 13.00  38:  5.98  39:  8.82  40:  2.88
  41:  4.12  42:  9.84  43: 12.91  44:  6.48  45:  6.49  46:  6.10  47:  7.71  48:  5.81
  49:  7.50  50:  4.32  51:  4.04  52:  9.01  53:  1.91  54: 11.27  55:  5.86  56:  7.34
  57:  7.64  58:  5.60  59: 10.24  60:  3.74  61:  8.77  62:  4.30  63:  1.69  64:  2.15
  65:  8.79  66:  1.65  67:  1.63  68:  9.97  69: 11.51  70: 11.61  71: 13.29  72:  1.79
  73:  1.63  74:  1.52  75:  1.80  76:  1.82  77:  1.87  78:  1.74  79:  1.81  80:  1.85
  81:  1.84  82:  1.86  83:  1.83  84:  1.86
 IR intensities (km·mol⁻¹)
   1:  0.07   2:  0.03   3:  0.09   4:  0.06   5:  0.01   6:  0.14   7:  1.47   8:  0.44
   9:  2.28  10:  1.45  11:  3.65  12:  0.12  13:  3.34  14:  0.60  15:  0.03  16:  1.39
  17: 27.55  18:  0.35  19:  1.79  20: 51.62  21: 25.59  22:  7.70  23:135.62  24:  6.37
  25: 40.32  26: 12.52  27:173.30  28: 59.17  29: 34.58  30: 16.02  31: 35.28  32: 10.92
  33:  0.70  34: 28.72  35: 13.75  36: 54.27  37:  5.80  38: 23.00  39: 40.28  40:  0.72
  41:  0.39  42: 29.59  43: 15.83  44:  4.74  45: 78.80  46: 44.96  47: 15.41  48:125.31
  49: 51.75  50: 63.61  51:244.29  52:220.56  53:  2.06  54:692.97  55: 47.40  56:166.65
  57:165.40  58: 15.22  59: 44.32  60: 55.85  61: 70.03  62: 16.48  63: 18.07  64: 33.64
  65: 73.32  66:  5.63  67:  2.86  68:397.45  69: 24.82  70:  2.54  71:421.04  72:  2.16
  73:  7.67  74:  1.59  75: 10.23  76: 46.83  77:  6.76  78:  7.89  79: 28.43  80: 23.55
  81: 14.78  82:101.95  83:  4.72  84: 19.18
 Raman intensities (Ä⁴*amu⁻¹)
   1:  0.00   2:  0.00   3:  0.00   4:  0.00   5:  0.00   6:  0.00   7:  0.00   8:  0.00
   9:  0.00  10:  0.00  11:  0.00  12:  0.00  13:  0.00  14:  0.00  15:  0.00  16:  0.00
  17:  0.00  18:  0.00  19:  0.00  20:  0.00  21:  0.00  22:  0.00  23:  0.00  24:  0.00
  25:  0.00  26:  0.00  27:  0.00  28:  0.00  29:  0.00  30:  0.00  31:  0.00  32:  0.00
  33:  0.00  34:  0.00  35:  0.00  36:  0.00  37:  0.00  38:  0.00  39:  0.00  40:  0.00
  41:  0.00  42:  0.00  43:  0.00  44:  0.00  45:  0.00  46:  0.00  47:  0.00  48:  0.00
  49:  0.00  50:  0.00  51:  0.00  52:  0.00  53:  0.00  54:  0.00  55:  0.00  56:  0.00
  57:  0.00  58:  0.00  59:  0.00  60:  0.00  61:  0.00  62:  0.00  63:  0.00  64:  0.00
  65:  0.00  66:  0.00  67:  0.00  68:  0.00  69:  0.00  70:  0.00  71:  0.00  72:  0.00
  73:  0.00  74:  0.00  75:  0.00  76:  0.00  77:  0.00  78:  0.00  79:  0.00  80:  0.00
  81:  0.00  82:  0.00  83:  0.00  84:  0.00
 output can be read by thermo (or use thermo option).
 writing <g98.out> molden fake output.
 recommended (thermochemical) frequency scaling factor: 1.0
           -------------------------------------------------
          |             Thermodynamic Functions             |
           -------------------------------------------------

c1  symmetry found (for desy threshold:  0.10E+00) used in thermo

          ...................................................
          :                      SETUP                      :
          :.................................................:
          :  # frequencies                          78      :
          :  # imaginary freq.                       0      :
          :  linear?                             false      :
          :  only rotor calc.                    false      :
          :  symmetry                               c1      :
          :  rotational number                       1      :
          :  scaling factor                  1.0000000      :
          :  rotor cutoff                   50.0000000 cm⁻¹ :
          :  imag. cutoff                  -20.0000000 cm⁻¹ :
          :.................................................:

    mode    ω/cm⁻¹     T·S(HO)/kcal·mol⁻¹    T·S(FR)/kcal·mol⁻¹   T·S(vib)
   ------------------------------------------------------------------------
       1     13.61    -2.20609 (  0.55%)    -1.44186 ( 99.45%)    -1.44602
       2     24.17    -1.86600 (  5.17%)    -1.27181 ( 94.83%)    -1.30255
       3     63.13    -1.29897 ( 71.77%)    -0.98740 ( 28.23%)    -1.21100
       4     73.25    -1.21166 ( 82.17%)    -0.94337 ( 17.83%)    -1.16382
       5    104.20    -1.00600 ( 94.97%)    -0.83898 (  5.03%)    -0.99759
       6    117.10    -0.93849 ( 96.78%)    -0.80442 (  3.22%)    -0.93418
       7    154.55    -0.77980 ( 98.92%)    -0.72222 (  1.08%)    -0.77918
       8    168.43    -0.73133 ( 99.23%)    -0.69674 (  0.77%)    -0.73106
       9    189.72    -0.66505 ( 99.52%)    -0.66149 (  0.48%)    -0.66504
      10    245.07    -0.52645 ( 99.83%)    -0.58565 (  0.17%)    -0.52656
      11    279.44    -0.45828 ( 99.90%)    -0.54677 (  0.10%)    -0.45837
   ------------------------------------------------------------------------

   temp. (K)  partition function   enthalpy   heat capacity  entropy
                                   cal/mol     cal/K/mol   cal/K/mol   J/K/mol
 298.15  VIB  0.112E+07             8045.316     50.276     49.733
         ROT  0.247E+07              888.752      2.981     32.231
         INT  0.277E+13             8934.068     53.257     81.964
         TR   0.297E+28             1481.254      4.968     41.928
         TOT                       10415.3219    58.2249   123.8919   518.3637

       T/K    H(0)-H(T)+PV         H(T)/Eh          T*S/Eh         G(T)/Eh
   ------------------------------------------------------------------------
    298.15    0.165979E-01    0.232579E+00    0.588650E-01    0.173714E+00
   ------------------------------------------------------------------------

         :::::::::::::::::::::::::::::::::::::::::::::::::::::
         ::                  THERMODYNAMIC                  ::
         :::::::::::::::::::::::::::::::::::::::::::::::::::::
         :: total free energy         -47.080413610552 Eh   ::
         ::.................................................::
         :: total energy              -47.254127479362 Eh   ::
         :: zero point energy           0.215981035567 Eh   ::
         :: G(RRHO) w/o ZPVE           -0.042267166757 Eh   ::
         :: G(RRHO) contrib.            0.173713868810 Eh   ::
         :::::::::::::::::::::::::::::::::::::::::::::::::::::

           -------------------------------------------------
          | TOTAL ENERGY              -47.254127479362 Eh   |
          | TOTAL ENTHALPY            -47.021548571778 Eh   |
          | TOTAL FREE ENERGY         -47.080413610552 Eh   |
          | GRADIENT NORM               0.000410073895 Eh/α |
          | HOMO-LUMO GAP               2.827944214099 eV   |
           -------------------------------------------------

------------------------------------------------------------------------
 * finished run on 2026/06/07 at 22:15:53.649     
------------------------------------------------------------------------
 total:
 * wall-time:     0 d,  0 h,  0 min,  9.469 sec
 *  cpu-time:     0 d,  0 h,  2 min,  2.840 sec
 * ratio c/w:    12.973 speedup
 SCF:
 * wall-time:     0 d,  0 h,  0 min,  1.273 sec
 *  cpu-time:     0 d,  0 h,  0 min, 16.701 sec
 * ratio c/w:    13.120 speedup
 analytical hessian:
 * wall-time:     0 d,  0 h,  0 min,  8.167 sec
 *  cpu-time:     0 d,  0 h,  1 min, 45.790 sec
 * ratio c/w:    12.954 speedup

