      -----------------------------------------------------------      
     |                   =====================                   |     
     |                           x T B                           |     
     |                   =====================                   |     
     |                         S. Grimme                         |     
     |          Mulliken Center for Theoretical Chemistry        |     
     |                    University of Bonn                     |     
      -----------------------------------------------------------      

   * xtb version 6.7.1 (edcfbbe) compiled by 'conda@c0858423619e' on 2025-09-04

   xtb is free software: you can redistribute it and/or modify it under
   the terms of the GNU Lesser General Public License as published by
   the Free Software Foundation, either version 3 of the License, or
   (at your option) any later version.
   
   xtb is distributed in the hope that it will be useful,
   but WITHOUT ANY WARRANTY; without even the implied warranty of
   MERCHANTABILITY or FITNESS FOR A PARTICULAR PURPOSE.  See the
   GNU Lesser General Public License for more details.
   
   Cite this work as:
   * C. Bannwarth, E. Caldeweyher, S. Ehlert, A. Hansen, P. Pracht,
     J. Seibert, S. Spicher, S. Grimme, WIREs Comput. Mol. Sci., 2020, 11,
     e01493. DOI: 10.1002/wcms.1493
   
   for GFN2-xTB:
   * C. Bannwarth, S. Ehlert and S. Grimme., J. Chem. Theory Comput., 2019,
     15, 1652-1671. DOI: 10.1021/acs.jctc.8b01176
   for GFN1-xTB:
   * S. Grimme, C. Bannwarth, P. Shushkov, J. Chem. Theory Comput., 2017,
     13, 1989-2009. DOI: 10.1021/acs.jctc.7b00118
   for GFN0-xTB:
   * P. Pracht, E. Caldeweyher, S. Ehlert, S. Grimme, ChemRxiv, 2019, preprint.
     DOI: 10.26434/chemrxiv.8326202.v1
   for GFN-FF:
   * S. Spicher and S. Grimme, Angew. Chem. Int. Ed., 2020, 59, 15665-15673.
     DOI: 10.1002/anie.202004239
   
   for ALPB and GBSA implicit solvation:
   * S. Ehlert, M. Stahn, S. Spicher, S. Grimme, J. Chem. Theory Comput.,
     2021, 17, 4250-4261. DOI: 10.1021/acs.jctc.1c00471
   
   for ddCOSMO and CPCM-X implicit solvation:
   * M. Stahn, S. Ehlert, S. Grimme, J. Phys. Chem. A,
     2023, XX, XXXX-XXXX. DOI: 10.1021/acs.jpca.3c04382
   
   for DFT-D4:
   * E. Caldeweyher, C. Bannwarth and S. Grimme, J. Chem. Phys., 2017,
     147, 034112. DOI: 10.1063/1.4993215
   * E. Caldeweyher, S. Ehlert, A. Hansen, H. Neugebauer, S. Spicher,
     C. Bannwarth and S. Grimme, J. Chem. Phys., 2019, 150, 154122.
     DOI: 10.1063/1.5090222
   * E. Caldeweyher, J.-M. Mewes, S. Ehlert and S. Grimme, Phys. Chem. Chem. Phys.
     2020, 22, 8499-8512. DOI: 10.1039/D0CP00502A
   
   for sTDA-xTB:
   * S. Grimme and C. Bannwarth, J. Chem. Phys., 2016, 145, 054103.
     DOI: 10.1063/1.4959605
   
   in the mass-spec context:
   * V. Asgeirsson, C. Bauer and S. Grimme, Chem. Sci., 2017, 8, 4879.
     DOI: 10.1039/c7sc00601b
   * J. Koopman and S. Grimme, ACS Omega 2019, 4, 12, 15120-15133.
     DOI: 10.1021/acsomega.9b02011
   
   for metadynamics refer to:
   * S. Grimme, J. Chem. Theory Comput., 2019, 155, 2847-2862
     DOI: 10.1021/acs.jctc.9b00143
   
   for SPH calculations refer to:
   * S. Spicher and S. Grimme, J. Chem. Theory Comput., 2021, 17, 1701-1714
     DOI: 10.1021/acs.jctc.0c01306
   
   for ONIOM refer to:
   * C. Plett, A. Katbashev, S. Ehlert, S. Grimme, M. Bursch,
     Phys. Chem. Chem. Phys., 2023, 25, 17860-17868. DOI: 10.1039/D3CP02178E
   
   for DIPRO refer to:
   * J. Kohn, N. Gildemeister, S. Grimme, D. Fazzi, A. Hansen,
     J. Chem. Phys., 2023, just accepted.
   
   for PTB refer to:
   * S. Grimme, M. Mueller, A. Hansen, J. Chem. Phys., 2023, 158, 124111.
     DOI: 10.1063/5.0137838
   
   with help from (in alphabetical order)
   P. Atkinson, C. Bannwarth, F. Bohle, G. Brandenburg, E. Caldeweyher
   M. Checinski, S. Dohm, S. Ehlert, S. Ehrlich, I. Gerasimov, C. Hölzer
   A. Katbashev, J. Kohn, J. Koopman, C. Lavigne, S. Lehtola, F. März, M. Müller,
   F. Musil, H. Neugebauer, J. Pisarek, C. Plett, P. Pracht, F. Pultar,
   J. Seibert, P. Shushkov, S. Spicher, M. Stahn, M. Steiner, T. Strunk,
   J. Stückrath, T. Rose, and J. Unsleber
   
 * started run on 2026/06/07 at 14:02:24.728     
   ID    Z sym.   atoms
    1    8 O      1, 2
    2    7 N      3
    3    6 C      4-11
    4    1 H      12-20

           -------------------------------------------------
          |                Calculation Setup                |
           -------------------------------------------------

          program call               : xtb xtbopt.xyz --molden --alpb water
          hostname                   : fedora
          coordinate file            : xtbopt.xyz
          omp threads                :                    16


           -------------------------------------------------
          |                 G F N 2 - x T B                 |
           -------------------------------------------------

        Reference                      10.1021/acs.jctc.8b01176
      * Hamiltonian:
        H0-scaling (s, p, d)           1.850000    2.230000    2.230000
        zeta-weighting                 0.500000
      * Dispersion:
        s8                             2.700000
        a1                             0.520000
        a2                             5.000000
        s9                             5.000000
      * Repulsion:
        kExp                           1.500000    1.000000
        rExp                           1.000000
      * Coulomb:
        alpha                          2.000000
        third order                    shell-resolved
        anisotropic                    true
        a3                             3.000000
        a5                             4.000000
        cn-shift                       1.200000
        cn-exp                         4.000000
        max-rad                        5.000000

      * Solvation model:               ALPB
        Solvent                        water
        Parameter file                 internal GFN2-xTB/ALPB
        Dielectric constant                8.0200E+01
        Reference state                gsolv [1 M gas/solution]
        Free energy shift                  1.0808E-03 Eh       6.7819E-01 kcal/mol
        Temperature                        2.9815E+02 K
        Density                            1.0000E+00 kg/L
        Solvent mass                       1.8000E+01 g/mol
        Interaction kernel             P16
        Born radius scaling (c1)           1.4744E+00
        Born radii integrator          GBOBC
        Born offset                        0.0000E+00 a0       0.0000E+00 AA
        H-bond correction              true
        Ion screening                  false
        Surface tension                    1.0000E-05 Eh       1.5569E+01 dyn/cm
        Grid points                               230 per atom

          ...................................................
          :                      SETUP                      :
          :.................................................:
          :  # basis functions                  53          :
          :  # atomic orbitals                  53          :
          :  # shells                           31          :
          :  # electrons                        58          :
          :  max. iterations                   250          :
          :  Hamiltonian                  GFN2-xTB          :
          :  restarted?                      false          :
          :  GBSA solvation                   true          :
          :  PC potential                    false          :
          :  electronic temp.          300.0000000     K    :
          :  accuracy                    1.0000000          :
          :  -> integral cutoff          0.2500000E+02      :
          :  -> integral neglect         0.1000000E-07      :
          :  -> SCF convergence          0.1000000E-05 Eh   :
          :  -> wf. convergence          0.1000000E-03 e    :
          :  Broyden damping             0.4000000          :
          :  net charge                          0          :
          :  unpaired electrons                  0          :
          ...................................................

 iter      E             dE          RMSdq      gap      omega  full diag
   1    -33.2083988 -0.332084E+02  0.476E+00    3.57       0.0  T
   2    -33.2589492 -0.505504E-01  0.266E+00    3.63       1.0  T
   3    -33.2592262 -0.276969E-03  0.986E-01    3.70       1.0  T
   4    -33.2603759 -0.114972E-02  0.251E-01    3.65       1.0  T
   5    -33.2610693 -0.693352E-03  0.823E-02    3.66       1.0  T
   6    -33.2610736 -0.430740E-05  0.376E-02    3.66       1.0  T
   7    -33.2610785 -0.491214E-05  0.156E-02    3.65       1.4  T
   8    -33.2610795 -0.101845E-05  0.537E-03    3.65       4.2  T
   9    -33.2610796 -0.919738E-07  0.325E-03    3.66       6.9  T
  10    -33.2610797 -0.389406E-07  0.885E-04    3.65      25.3  T
  11    -33.2610797 -0.215564E-08  0.424E-04    3.65      52.8  T

   *** convergence criteria satisfied after 11 iterations ***

         #    Occupation            Energy/Eh            Energy/eV
      -------------------------------------------------------------
         1        2.0000           -0.7072895             -19.2463
       ...           ...                  ...                  ...
        23        2.0000           -0.4688398             -12.7578
        24        2.0000           -0.4578891             -12.4598
        25        2.0000           -0.4314894             -11.7414
        26        2.0000           -0.4269437             -11.6177
        27        2.0000           -0.4073141             -11.0836
        28        2.0000           -0.3974958             -10.8164
        29        2.0000           -0.3696612             -10.0590 (HOMO)
        30                         -0.2353520              -6.4043 (LUMO)
        31                         -0.2252595              -6.1296
        32                         -0.1862839              -5.0690
        33                         -0.0841000              -2.2885
        34                          0.0137222               0.3734
       ...                                ...                  ...
        53                          0.6737025              18.3324
      -------------------------------------------------------------
                  HL-Gap            0.1343092 Eh            3.6547 eV
             Fermi-level           -0.3025066 Eh           -8.2316 eV

 SCC (total)                   0 d,  0 h,  0 min,  0.296 sec
 SCC setup                      ...        0 min,  0.005 sec (  1.600%)
 Dispersion                     ...        0 min,  0.004 sec (  1.347%)
 classical contributions        ...        0 min,  0.001 sec (  0.317%)
 integral evaluation            ...        0 min,  0.006 sec (  2.051%)
 iterations                     ...        0 min,  0.255 sec ( 86.018%)
 molecular gradient             ...        0 min,  0.025 sec (  8.529%)
 printout                       ...        0 min,  0.000 sec (  0.117%)

         :::::::::::::::::::::::::::::::::::::::::::::::::::::
         ::                     SUMMARY                     ::
         :::::::::::::::::::::::::::::::::::::::::::::::::::::
         :: total energy             -32.799849564308 Eh    ::
         :: total w/o Gsasa/hb       -32.793442062252 Eh    ::
         :: gradient norm              0.000438882016 Eh/a0 ::
         :: HOMO-LUMO gap              3.654739765127 eV    ::
         ::.................................................::
         :: SCC energy               -33.261124653219 Eh    ::
         :: -> isotropic ES            0.082939404090 Eh    ::
         :: -> anisotropic ES          0.001605531574 Eh    ::
         :: -> anisotropic XC          0.010158284615 Eh    ::
         :: -> dispersion             -0.015958226346 Eh    ::
         :: -> Gsolv                  -0.022170826800 Eh    ::
         ::    -> Gelec               -0.015763324744 Eh    ::
         ::    -> Gsasa                0.001070200538 Eh    ::
         ::    -> Ghb                 -0.008558462292 Eh    ::
         ::    -> Gshift               0.001080759698 Eh    ::
         :: repulsion energy           0.461275088910 Eh    ::
         :: add. restraining           0.000000000000 Eh    ::
         :: total charge              -0.000000000000 e     ::
         :::::::::::::::::::::::::::::::::::::::::::::::::::::

           -------------------------------------------------
          |                Property Printout                |
           -------------------------------------------------

    * Orbital Energies and Occupations

         #    Occupation            Energy/Eh            Energy/eV
      -------------------------------------------------------------
         1        2.0000           -0.7072895             -19.2463
       ...           ...                  ...                  ...
        17        2.0000           -0.4986345             -13.5685
        18        2.0000           -0.4872974             -13.2600
        19        2.0000           -0.4862550             -13.2317
        20        2.0000           -0.4799882             -13.0611
        21        2.0000           -0.4768877             -12.9768
        22        2.0000           -0.4702810             -12.7970
        23        2.0000           -0.4688398             -12.7578
        24        2.0000           -0.4578891             -12.4598
        25        2.0000           -0.4314894             -11.7414
        26        2.0000           -0.4269437             -11.6177
        27        2.0000           -0.4073141             -11.0836
        28        2.0000           -0.3974958             -10.8164
        29        2.0000           -0.3696612             -10.0590 (HOMO)
        30                         -0.2353520              -6.4043 (LUMO)
        31                         -0.2252595              -6.1296
        32                         -0.1862839              -5.0690
        33                         -0.0841000              -2.2885
        34                          0.0137222               0.3734
        35                          0.0760081               2.0683
        36                          0.0946232               2.5748
        37                          0.1360616               3.7024
        38                          0.1575048               4.2859
        39                          0.1633175               4.4441
        40                          0.1723284               4.6893
       ...                                ...                  ...
        53                          0.6737025              18.3324
      -------------------------------------------------------------
                  HL-Gap            0.1343092 Eh            3.6547 eV
             Fermi-level           -0.3025066 Eh           -8.2316 eV

     #   Z          covCN         q      C6AA      α(0)
     1   8 O        1.659    -0.456    21.962     6.326
     2   8 O        0.857    -0.515    24.124     6.585
     3   7 N        2.697    -0.165    24.577     7.363
     4   6 C        2.904     0.062    26.617     8.459
     5   6 C        2.921    -0.050    29.248     8.869
     6   6 C        2.926    -0.059    29.477     8.904
     7   6 C        2.919    -0.075    29.871     8.963
     8   6 C        2.919    -0.061    29.514     8.909
     9   6 C        2.845     0.141    24.930     8.183
    10   6 C        2.746     0.284    22.187     7.713
    11   6 C        3.759    -0.167    23.792     6.954
    12   1 H        0.926     0.059     2.208     2.324
    13   1 H        0.926     0.056     2.250     2.346
    14   1 H        0.860     0.225     0.989     1.558
    15   1 H        0.926     0.047     2.361     2.403
    16   1 H        0.926     0.058     2.226     2.333
    17   1 H        0.925     0.086     1.919     2.166
    18   1 H        0.925     0.075     2.029     2.228
    19   1 H        0.925     0.085     1.926     2.170
    20   1 H        0.805     0.372     0.540     1.154

 Mol. C6AA /au·bohr⁶  :       4598.765632
 Mol. C8AA /au·bohr⁸  :     109066.086913
 Mol. α(0) /au        :        105.908141


Wiberg/Mayer (AO) data.
largest (>0.10) Wiberg bond orders for each atom

 ---------------------------------------------------------------------------
     #   Z sym  total        # sym  WBO       # sym  WBO       # sym  WBO
 ---------------------------------------------------------------------------
     1   8 O    2.070 --     9 C    1.074    20 H    0.842
     2   8 O    1.942 --    10 C    1.634     3 N    0.164
     3   7 N    3.507 --    10 C    1.246     4 C    1.066    14 H    0.917
                             2 O    0.164
     4   6 C    3.962 --     5 C    1.377     6 C    1.358     3 N    1.066
     5   6 C    3.989 --     7 C    1.450     4 C    1.377    12 H    0.963
                             8 C    0.104
     6   6 C    3.988 --     8 C    1.473     4 C    1.358    13 H    0.964
                             7 C    0.102
     7   6 C    3.987 --     5 C    1.450     9 C    1.374    15 H    0.966
                             6 C    0.102
     8   6 C    3.988 --     6 C    1.473     9 C    1.353    16 H    0.967
                             5 C    0.104
     9   6 C    3.940 --     7 C    1.374     8 C    1.353     1 O    1.074
    10   6 C    3.937 --     2 O    1.634     3 N    1.246    11 C    0.990
    11   6 C    3.988 --    10 C    0.990    18 H    0.983    19 H    0.964
                            17 H    0.963
    12   1 H    0.996 --     5 C    0.963
    13   1 H    0.997 --     6 C    0.964
    14   1 H    0.949 --     3 N    0.917
    15   1 H    0.997 --     7 C    0.966
    16   1 H    0.996 --     8 C    0.967
    17   1 H    0.992 --    11 C    0.963
    18   1 H    0.994 --    11 C    0.983
    19   1 H    0.992 --    11 C    0.964
    20   1 H    0.862 --     1 O    0.842
 ---------------------------------------------------------------------------

Topologies differ in total number of bonds
Writing topology from bond orders to xtbtopo.mol

MOs/occ written to file <molden.input>


molecular dipole:
                 x           y           z       tot (Debye)
 q only:        0.193      -1.381      -0.003
   full:        0.091      -1.388      -0.003       3.535
molecular quadrupole (traceless):
                xx          xy          yy          xz          yz          zz
 q only:        1.877      20.845       1.320       0.035       0.002      -3.196
  q+dip:        1.008      23.429       4.382       0.044       0.007      -5.390
   full:        0.259      23.793       2.566       0.045       0.004      -2.824


           -------------------------------------------------
          | TOTAL ENERGY              -32.799849564308 Eh   |
          | GRADIENT NORM               0.000438882016 Eh/α |
          | HOMO-LUMO GAP               3.654739765127 eV   |
           -------------------------------------------------

------------------------------------------------------------------------
 * finished run on 2026/06/07 at 14:02:25.069     
------------------------------------------------------------------------
 total:
 * wall-time:     0 d,  0 h,  0 min,  0.341 sec
 *  cpu-time:     0 d,  0 h,  0 min,  4.926 sec
 * ratio c/w:    14.449 speedup
 SCF:
 * wall-time:     0 d,  0 h,  0 min,  0.296 sec
 *  cpu-time:     0 d,  0 h,  0 min,  4.263 sec
 * ratio c/w:    14.380 speedup

