28
XYZ file generated by Avogadro.
C    -10.8634800000    1.2809540000   -1.2551360000
C     -9.4066620000    0.9592870000   -1.3500790000
O     -9.0480240000   -0.2082570000   -1.3929910000
O     -8.5076240000    1.9802990000   -1.3958160000
C     -7.1217000000    1.8853640000   -1.4743190000
C     -6.5726320000    1.2152830000   -0.1883960000
O     -6.7696420000    1.1794120000   -2.6428790000
N     -6.5860760000    3.2389840000   -1.5681150000
C     -5.2106880000    3.5870990000   -1.7764060000
C     -4.2062330000    2.6298520000   -2.0399920000
C     -2.8811260000    3.0275840000   -2.2422860000
C     -2.5332500000    4.3831160000   -2.1875770000
O     -1.2585140000    4.7778070000   -2.3808250000
C     -3.5196390000    5.3382730000   -1.9323800000
C     -4.8456460000    4.9448930000   -1.7313670000
H    -11.4718720000    0.3515610000   -1.2295480000
H    -11.1666580000    1.8849530000   -2.1355360000
H    -11.0549340000    1.8622310000   -0.3293190000
H     -6.9648060000    0.1855350000   -0.0667960000
H     -6.8799080000    1.8081760000    0.6994760000
H     -5.4689850000    1.1468970000   -0.1842990000
H     -6.8222540000    0.2069740000   -2.4561730000
H     -7.2601630000    4.0166540000   -1.4839280000
H     -4.4229680000    1.5754060000   -2.1018310000
H     -2.1251360000    2.2790460000   -2.4440990000
H     -0.5469580000    4.1469140000   -2.5614500000
H     -3.2595550000    6.3885960000   -1.8901970000
H     -5.5925460000    5.7042450000   -1.5358140000
