14
Properties=species:S:1:pos:R:3 pbc="F F F"
O      0.0000000000    0.6787000000   -0.0004000000
O      1.3055000000   -1.2445000000   -0.0013000000
O     -1.3055000000   -1.2445000000    0.0015000000
C      1.1687000000   -0.0287000000   -0.0015000000
C     -1.1687000000   -0.0287000000    0.0010000000
C      2.3195000000    0.9339000000    0.0017000000
C     -2.3196000000    0.9338000000   -0.0011000000
H      3.2599000000    0.3751000000   -0.0078000000
H      2.2880000000    1.5467000000    0.9061000000
H      2.2803000000    1.5623000000   -0.8917000000
H     -2.2815000000    1.5598000000    0.8939000000
H     -3.2599000000    0.3750000000    0.0055000000
H     -2.2870000000    1.5490000000   -0.9039000000
H     -1.7348980904   -1.8056317568    0.0387857519
