15
 xtb: 6.7.1 (edcfbbe)
O           -2.75945887030460        0.02537291464284        0.00128940268290
N            2.77833719384813        0.00380379266206       -0.12753599871512
C            1.40644828552033       -0.00310027178294        0.02856858144040
C            0.69860654605697       -1.20401793746078        0.00899866388235
C            0.68640576109758        1.19315206198692        0.00875904145479
C           -1.38982419548068       -0.01344496220111       -0.00260831842554
C           -0.68332559886379       -1.20797514104223       -0.00307531657284
C           -0.69240982601313        1.18913031479767       -0.00301856885957
H            1.23850486481867       -2.14015170211262        0.00318369883894
H            1.22076757586353        2.13226460625889        0.00292309013032
H           -1.21702062596712       -2.14992943378558       -0.00167365401045
H           -1.24884266845342        2.11277095337993       -0.00156622117488
H            3.28802759448489       -0.85649087438110        0.16581260409110
H            3.27808750039328        0.86988478032733        0.16510271029842
H           -3.10201798215520       -0.87568297851631       -0.00136723578459
