      -----------------------------------------------------------      
     |                   =====================                   |     
     |                           x T B                           |     
     |                   =====================                   |     
     |                         S. Grimme                         |     
     |          Mulliken Center for Theoretical Chemistry        |     
     |                    University of Bonn                     |     
      -----------------------------------------------------------      

   * xtb version 6.7.1 (edcfbbe) compiled by 'conda@c0858423619e' on 2025-09-04

   xtb is free software: you can redistribute it and/or modify it under
   the terms of the GNU Lesser General Public License as published by
   the Free Software Foundation, either version 3 of the License, or
   (at your option) any later version.
   
   xtb is distributed in the hope that it will be useful,
   but WITHOUT ANY WARRANTY; without even the implied warranty of
   MERCHANTABILITY or FITNESS FOR A PARTICULAR PURPOSE.  See the
   GNU Lesser General Public License for more details.
   
   Cite this work as:
   * C. Bannwarth, E. Caldeweyher, S. Ehlert, A. Hansen, P. Pracht,
     J. Seibert, S. Spicher, S. Grimme, WIREs Comput. Mol. Sci., 2020, 11,
     e01493. DOI: 10.1002/wcms.1493
   
   for GFN2-xTB:
   * C. Bannwarth, S. Ehlert and S. Grimme., J. Chem. Theory Comput., 2019,
     15, 1652-1671. DOI: 10.1021/acs.jctc.8b01176
   for GFN1-xTB:
   * S. Grimme, C. Bannwarth, P. Shushkov, J. Chem. Theory Comput., 2017,
     13, 1989-2009. DOI: 10.1021/acs.jctc.7b00118
   for GFN0-xTB:
   * P. Pracht, E. Caldeweyher, S. Ehlert, S. Grimme, ChemRxiv, 2019, preprint.
     DOI: 10.26434/chemrxiv.8326202.v1
   for GFN-FF:
   * S. Spicher and S. Grimme, Angew. Chem. Int. Ed., 2020, 59, 15665-15673.
     DOI: 10.1002/anie.202004239
   
   for ALPB and GBSA implicit solvation:
   * S. Ehlert, M. Stahn, S. Spicher, S. Grimme, J. Chem. Theory Comput.,
     2021, 17, 4250-4261. DOI: 10.1021/acs.jctc.1c00471
   
   for ddCOSMO and CPCM-X implicit solvation:
   * M. Stahn, S. Ehlert, S. Grimme, J. Phys. Chem. A,
     2023, XX, XXXX-XXXX. DOI: 10.1021/acs.jpca.3c04382
   
   for DFT-D4:
   * E. Caldeweyher, C. Bannwarth and S. Grimme, J. Chem. Phys., 2017,
     147, 034112. DOI: 10.1063/1.4993215
   * E. Caldeweyher, S. Ehlert, A. Hansen, H. Neugebauer, S. Spicher,
     C. Bannwarth and S. Grimme, J. Chem. Phys., 2019, 150, 154122.
     DOI: 10.1063/1.5090222
   * E. Caldeweyher, J.-M. Mewes, S. Ehlert and S. Grimme, Phys. Chem. Chem. Phys.
     2020, 22, 8499-8512. DOI: 10.1039/D0CP00502A
   
   for sTDA-xTB:
   * S. Grimme and C. Bannwarth, J. Chem. Phys., 2016, 145, 054103.
     DOI: 10.1063/1.4959605
   
   in the mass-spec context:
   * V. Asgeirsson, C. Bauer and S. Grimme, Chem. Sci., 2017, 8, 4879.
     DOI: 10.1039/c7sc00601b
   * J. Koopman and S. Grimme, ACS Omega 2019, 4, 12, 15120-15133.
     DOI: 10.1021/acsomega.9b02011
   
   for metadynamics refer to:
   * S. Grimme, J. Chem. Theory Comput., 2019, 155, 2847-2862
     DOI: 10.1021/acs.jctc.9b00143
   
   for SPH calculations refer to:
   * S. Spicher and S. Grimme, J. Chem. Theory Comput., 2021, 17, 1701-1714
     DOI: 10.1021/acs.jctc.0c01306
   
   for ONIOM refer to:
   * C. Plett, A. Katbashev, S. Ehlert, S. Grimme, M. Bursch,
     Phys. Chem. Chem. Phys., 2023, 25, 17860-17868. DOI: 10.1039/D3CP02178E
   
   for DIPRO refer to:
   * J. Kohn, N. Gildemeister, S. Grimme, D. Fazzi, A. Hansen,
     J. Chem. Phys., 2023, just accepted.
   
   for PTB refer to:
   * S. Grimme, M. Mueller, A. Hansen, J. Chem. Phys., 2023, 158, 124111.
     DOI: 10.1063/5.0137838
   
   with help from (in alphabetical order)
   P. Atkinson, C. Bannwarth, F. Bohle, G. Brandenburg, E. Caldeweyher
   M. Checinski, S. Dohm, S. Ehlert, S. Ehrlich, I. Gerasimov, C. Hölzer
   A. Katbashev, J. Kohn, J. Koopman, C. Lavigne, S. Lehtola, F. März, M. Müller,
   F. Musil, H. Neugebauer, J. Pisarek, C. Plett, P. Pracht, F. Pultar,
   J. Seibert, P. Shushkov, S. Spicher, M. Stahn, M. Steiner, T. Strunk,
   J. Stückrath, T. Rose, and J. Unsleber
   
 * started run on 2026/06/07 at 22:15:30.849     
   ID    Z sym.   atoms
    1    6 C      1, 2, 5, 6, 9-12, 14, 15
    2    8 O      3, 4, 7, 13
    3    7 N      8
    4    1 H      16-28

           -------------------------------------------------
          |                Calculation Setup                |
           -------------------------------------------------

          program call               : xtb molecula_intermedia.xyz --opt
          hostname                   : fedora
          coordinate file            : molecula_intermedia.xyz
          omp threads                :                    16


           -------------------------------------------------
          |                 G F N 2 - x T B                 |
           -------------------------------------------------

        Reference                      10.1021/acs.jctc.8b01176
      * Hamiltonian:
        H0-scaling (s, p, d)           1.850000    2.230000    2.230000
        zeta-weighting                 0.500000
      * Dispersion:
        s8                             2.700000
        a1                             0.520000
        a2                             5.000000
        s9                             5.000000
      * Repulsion:
        kExp                           1.500000    1.000000
        rExp                           1.000000
      * Coulomb:
        alpha                          2.000000
        third order                    shell-resolved
        anisotropic                    true
        a3                             3.000000
        a5                             4.000000
        cn-shift                       1.200000
        cn-exp                         4.000000
        max-rad                        5.000000


          ...................................................
          :                      SETUP                      :
          :.................................................:
          :  # basis functions                  73          :
          :  # atomic orbitals                  73          :
          :  # shells                           43          :
          :  # electrons                        82          :
          :  max. iterations                   250          :
          :  Hamiltonian                  GFN2-xTB          :
          :  restarted?                      false          :
          :  GBSA solvation                  false          :
          :  PC potential                    false          :
          :  electronic temp.          300.0000000     K    :
          :  accuracy                    1.0000000          :
          :  -> integral cutoff          0.2500000E+02      :
          :  -> integral neglect         0.1000000E-07      :
          :  -> SCF convergence          0.1000000E-05 Eh   :
          :  -> wf. convergence          0.1000000E-03 e    :
          :  Broyden damping             0.4000000          :
          :  net charge                          0          :
          :  unpaired electrons                  0          :
          ...................................................

 iter      E             dE          RMSdq      gap      omega  full diag
   1    -47.6668482 -0.476668E+02  0.454E+00    2.84       0.0  T
   2    -47.7332501 -0.664019E-01  0.261E+00    2.63       1.0  T
   3    -47.7336406 -0.390513E-03  0.127E+00    2.98       1.0  T
   4    -47.7429988 -0.935820E-02  0.180E-01    2.54       1.0  T
   5    -47.7432659 -0.267089E-03  0.860E-02    2.58       1.0  T
   6    -47.7433158 -0.498436E-04  0.436E-02    2.58       1.0  T
   7    -47.7433377 -0.218980E-04  0.169E-02    2.57       1.1  T
   8    -47.7433399 -0.219293E-05  0.516E-03    2.57       3.7  T
   9    -47.7433400 -0.135513E-06  0.247E-03    2.57       7.7  T
  10    -47.7433400 -0.393500E-07  0.970E-04    2.57      19.5  T
  11    -47.7433400 -0.467955E-08  0.431E-04    2.57      43.9  T

   *** convergence criteria satisfied after 11 iterations ***

         #    Occupation            Energy/Eh            Energy/eV
      -------------------------------------------------------------
         1        2.0000           -0.7548518             -20.5406
       ...           ...                  ...                  ...
        35        2.0000           -0.4472820             -12.1712
        36        2.0000           -0.4415546             -12.0153
        37        2.0000           -0.4269160             -11.6170
        38        2.0000           -0.4133500             -11.2478
        39        2.0000           -0.4053395             -11.0298
        40        2.0000           -0.3933865             -10.7046
        41        2.0000           -0.3446657              -9.3788 (HOMO)
        42                         -0.2501279              -6.8063 (LUMO)
        43                         -0.2180572              -5.9336
        44                         -0.1959921              -5.3332
        45                         -0.0838674              -2.2821
        46                         -0.0603532              -1.6423
       ...                                ...                  ...
        73                          0.6401767              17.4201
      -------------------------------------------------------------
                  HL-Gap            0.0945378 Eh            2.5725 eV
             Fermi-level           -0.2973968 Eh           -8.0926 eV

 SCC (total)                   0 d,  0 h,  0 min,  0.975 sec
 SCC setup                      ...        0 min,  0.001 sec (  0.052%)
 Dispersion                     ...        0 min,  0.003 sec (  0.349%)
 classical contributions        ...        0 min,  0.000 sec (  0.015%)
 integral evaluation            ...        0 min,  0.007 sec (  0.675%)
 iterations                     ...        0 min,  0.945 sec ( 96.894%)
 molecular gradient             ...        0 min,  0.019 sec (  1.966%)
 printout                       ...        0 min,  0.000 sec (  0.046%)

         :::::::::::::::::::::::::::::::::::::::::::::::::::::
         ::                     SUMMARY                     ::
         :::::::::::::::::::::::::::::::::::::::::::::::::::::
         :: total energy             -47.230818950849 Eh    ::
         :: gradient norm              0.111816236203 Eh/a0 ::
         :: HOMO-LUMO gap              2.572503193770 eV    ::
         ::.................................................::
         :: SCC energy               -47.743394966478 Eh    ::
         :: -> isotropic ES            0.104339354660 Eh    ::
         :: -> anisotropic ES          0.002333549856 Eh    ::
         :: -> anisotropic XC          0.008676009834 Eh    ::
         :: -> dispersion             -0.024203321541 Eh    ::
         :: repulsion energy           0.512576015629 Eh    ::
         :: add. restraining           0.000000000000 Eh    ::
         :: total charge              -0.000000000000 e     ::
         :::::::::::::::::::::::::::::::::::::::::::::::::::::

      ----------------------------------------------------------- 
     |                   =====================                   |
     |                        A N C O P T                        |
     |                   =====================                   |
     |               Approximate Normal Coordinate               |
     |                Rational Function Optimizer                |
      ----------------------------------------------------------- 
      ----------------------------------------------------------- 
     |                   =====================                   |
     |                        A N C O P T                        |
     |                   =====================                   |
     |               Approximate Normal Coordinate               |
     |                Rational Function Optimizer                |
      ----------------------------------------------------------- 

          ...................................................
          :                      SETUP                      :
          :.................................................:
          :   optimization level            normal          :
          :   max. optcycles                   200          :
          :   ANC micro-cycles                  20          :
          :   degrees of freedom                78          :
          :.................................................:
          :   RF solver                   davidson          :
          :   write xtbopt.log                true          :
          :   linear?                        false          :
          :   energy convergence         0.5000000E-05 Eh   :
          :   grad. convergence          0.1000000E-02 Eh/α :
          :   maxmium RF displ.          1.0000000          :
          :   Hlow (freq-cutoff)         0.1000000E-01      :
          :   Hmax (freq-cutoff)         5.0000000          :
          :   S6 in model hess.         20.0000000          :
          ...................................................

generating ANC from exact Hessian ...
Using Lindh-Hessian (1995)
 Shifting diagonal of input Hessian by    9.3130496091014762E-003
 Lowest  eigenvalues of input Hessian
    0.000000    0.000000    0.000000    0.000000    0.000000    0.000000
    0.010000    0.010477    0.011006    0.012019    0.013085    0.015605
    0.016123    0.019737    0.021970    0.023792    0.024614    0.025887
 Highest eigenvalues
    1.822959    1.845776    1.881163    1.971477    2.091686    2.232669


........................................................................
.............................. CYCLE    1 ..............................
........................................................................

 iter      E             dE          RMSdq      gap      omega  full diag
   1    -47.7433400 -0.477433E+02  0.174E-04    2.57       0.0  T
   2    -47.7433400 -0.857412E-10  0.113E-04    2.57     167.9  T
   3    -47.7433400 -0.878941E-11  0.722E-05    2.57     261.8  T
     SCC iter.                  ...        0 min,  0.322 sec
     gradient                   ...        0 min,  0.011 sec
 * total energy  :   -47.2308190 Eh     change       -0.2185388E-08 Eh
   gradient norm :     0.1118152 Eh/α   predicted     0.0000000E+00 (-100.00%)
   displ. norm   :     0.3522351 α      lambda       -0.1931966E-01
   maximum displ.:     0.1526763 α      in ANC's #15, #43, #13, ...

........................................................................
.............................. CYCLE    2 ..............................
........................................................................

 iter      E             dE          RMSdq      gap      omega  full diag
   1    -47.7921249 -0.477921E+02  0.240E-01    2.66       0.0  T
   2    -47.7923177 -0.192788E-03  0.147E-01    2.66       1.0  T
   3    -47.7923236 -0.589109E-05  0.819E-02    2.65       1.0  T
   4    -47.7923829 -0.592882E-04  0.159E-02    2.65       1.2  T
   5    -47.7923861 -0.320089E-05  0.513E-03    2.65       3.7  T
   6    -47.7923861  0.788844E-08  0.223E-03    2.65       8.5  T
   7    -47.7923861 -0.522955E-07  0.758E-04    2.65      24.9  T
   8    -47.7923861 -0.459755E-08  0.352E-04    2.65      53.7  T
     SCC iter.                  ...        0 min,  0.694 sec
     gradient                   ...        0 min,  0.014 sec
 * total energy  :   -47.2451050 Eh     change       -0.1428606E-01 Eh
   gradient norm :     0.0560613 Eh/α   predicted    -0.1087009E-01 ( -23.91%)
   displ. norm   :     0.4057922 α      lambda       -0.9700920E-02
   maximum displ.:     0.1685069 α      in ANC's #15, #13, #11, ...

........................................................................
.............................. CYCLE    3 ..............................
........................................................................

 iter      E             dE          RMSdq      gap      omega  full diag
   1    -47.8210539 -0.478211E+02  0.197E-01    2.72       0.0  T
   2    -47.8212346 -0.180749E-03  0.125E-01    2.72       1.0  T
   3    -47.8212718 -0.372272E-04  0.718E-02    2.72       1.0  T
   4    -47.8213020 -0.301786E-04  0.140E-02    2.72       1.3  T
   5    -47.8213042 -0.216864E-05  0.455E-03    2.72       4.2  T
   6    -47.8213042  0.401174E-08  0.208E-03    2.72       9.1  T
   7    -47.8213042 -0.491300E-07  0.803E-04    2.72      23.5  T
   8    -47.8213042 -0.448879E-08  0.315E-04    2.72      60.0  T
     SCC iter.                  ...        0 min,  0.571 sec
     gradient                   ...        0 min,  0.005 sec
 * total energy  :   -47.2510612 Eh     change       -0.5956211E-02 Eh
   gradient norm :     0.0185222 Eh/α   predicted    -0.5651072E-02 (  -5.12%)
   displ. norm   :     0.2634007 α      lambda       -0.1812088E-02
   maximum displ.:     0.1419354 α      in ANC's #13, #12, #11, ...

........................................................................
.............................. CYCLE    4 ..............................
........................................................................

 iter      E             dE          RMSdq      gap      omega  full diag
   1    -47.8225385 -0.478225E+02  0.871E-02    2.71       0.0  T
   2    -47.8225554 -0.168747E-04  0.537E-02    2.72       1.0  T
   3    -47.8225508  0.454987E-05  0.268E-02    2.72       1.0  T
   4    -47.8225611 -0.102575E-04  0.482E-03    2.72       3.9  T
   5    -47.8225614 -0.302184E-06  0.215E-03    2.72       8.8  T
   6    -47.8225614 -0.773071E-08  0.101E-03    2.72      18.7  T
   7    -47.8225614 -0.765709E-08  0.372E-04    2.72      50.8  T
   8    -47.8225614 -0.460247E-09  0.158E-04    2.72     119.7  T
     SCC iter.                  ...        0 min,  0.750 sec
     gradient                   ...        0 min,  0.007 sec
 * total energy  :   -47.2523066 Eh     change       -0.1245399E-02 Eh
   gradient norm :     0.0142563 Eh/α   predicted    -0.9689142E-03 ( -22.20%)
   displ. norm   :     0.2348461 α      lambda       -0.8693639E-03
   maximum displ.:     0.1221995 α      in ANC's #13, #5, #12, ...

........................................................................
.............................. CYCLE    5 ..............................
........................................................................

 iter      E             dE          RMSdq      gap      omega  full diag
   1    -47.8203170 -0.478203E+02  0.801E-02    2.72       0.0  T
   2    -47.8203283 -0.112684E-04  0.469E-02    2.72       1.0  T
   3    -47.8203277  0.607272E-06  0.155E-02    2.73       1.2  T
   4    -47.8203295 -0.183200E-05  0.401E-03    2.73       4.7  T
   5    -47.8203297 -0.245171E-06  0.182E-03    2.73      10.4  T
   6    -47.8203297 -0.117223E-07  0.945E-04    2.73      20.0  T
   7    -47.8203298 -0.698542E-08  0.296E-04    2.73      63.9  T
     SCC iter.                  ...        0 min,  0.319 sec
     gradient                   ...        0 min,  0.009 sec
 * total energy  :   -47.2528702 Eh     change       -0.5636045E-03 Eh
   gradient norm :     0.0117205 Eh/α   predicted    -0.4586718E-03 ( -18.62%)
   displ. norm   :     0.1564062 α      lambda       -0.3750741E-03
   maximum displ.:     0.0656791 α      in ANC's #13, #3, #5, ...

........................................................................
.............................. CYCLE    6 ..............................
........................................................................

 iter      E             dE          RMSdq      gap      omega  full diag
   1    -47.8196147 -0.478196E+02  0.491E-02    2.74       0.0  T
   2    -47.8196187 -0.401716E-05  0.284E-02    2.74       1.0  T
   3    -47.8196179  0.772098E-06  0.125E-02    2.74       1.5  T
   4    -47.8196196 -0.163879E-05  0.268E-03    2.74       7.1  T
   5    -47.8196196 -0.736183E-07  0.120E-03    2.74      15.7  T
   6    -47.8196196 -0.363082E-08  0.568E-04    2.74      33.3  T
   7    -47.8196196 -0.192595E-08  0.161E-04    2.74     117.7  T
     SCC iter.                  ...        0 min,  0.599 sec
     gradient                   ...        0 min,  0.014 sec
 * total energy  :   -47.2531371 Eh     change       -0.2668819E-03 Eh
   gradient norm :     0.0092987 Eh/α   predicted    -0.1921274E-03 ( -28.01%)
   displ. norm   :     0.1653686 α      lambda       -0.2990991E-03
   maximum displ.:     0.0685742 α      in ANC's #2, #5, #3, ...

........................................................................
.............................. CYCLE    7 ..............................
........................................................................

 iter      E             dE          RMSdq      gap      omega  full diag
   1    -47.8196108 -0.478196E+02  0.522E-02    2.74       0.0  T
   2    -47.8196145 -0.376042E-05  0.305E-02    2.74       1.0  T
   3    -47.8196131  0.141579E-05  0.133E-02    2.74       1.4  T
   4    -47.8196156 -0.248271E-05  0.262E-03    2.74       7.2  T
   5    -47.8196157 -0.544147E-07  0.131E-03    2.74      14.4  T
   6    -47.8196157 -0.247437E-08  0.492E-04    2.74      38.4  T
   7    -47.8196157 -0.225958E-08  0.150E-04    2.74     125.6  T
     SCC iter.                  ...        0 min,  0.964 sec
     gradient                   ...        0 min,  0.010 sec
 * total energy  :   -47.2533472 Eh     change       -0.2100693E-03 Eh
   gradient norm :     0.0086299 Eh/α   predicted    -0.1536437E-03 ( -26.86%)
   displ. norm   :     0.1559177 α      lambda       -0.2236328E-03
   maximum displ.:     0.0833813 α      in ANC's #2, #13, #3, ...

........................................................................
.............................. CYCLE    8 ..............................
........................................................................

 iter      E             dE          RMSdq      gap      omega  full diag
   1    -47.8203947 -0.478204E+02  0.492E-02    2.75       0.0  T
   2    -47.8203997 -0.501345E-05  0.287E-02    2.75       1.0  T
   3    -47.8203988  0.910633E-06  0.130E-02    2.75       1.4  T
   4    -47.8204009 -0.204869E-05  0.298E-03    2.75       6.3  T
   5    -47.8204010 -0.958859E-07  0.144E-03    2.75      13.2  T
   6    -47.8204010 -0.446457E-08  0.516E-04    2.75      36.6  T
   7    -47.8204010 -0.199903E-08  0.154E-04    2.75     122.6  T
     SCC iter.                  ...        0 min,  0.435 sec
     gradient                   ...        0 min,  0.015 sec
 * total energy  :   -47.2535034 Eh     change       -0.1562625E-03 Eh
   gradient norm :     0.0072841 Eh/α   predicted    -0.1145444E-03 ( -26.70%)
   displ. norm   :     0.1600623 α      lambda       -0.1976443E-03
   maximum displ.:     0.1035632 α      in ANC's #2, #16, #13, ...

........................................................................
.............................. CYCLE    9 ..............................
........................................................................

 iter      E             dE          RMSdq      gap      omega  full diag
   1    -47.8210944 -0.478211E+02  0.603E-02    2.74       0.0  T
   2    -47.8210994 -0.501718E-05  0.350E-02    2.74       1.0  T
   3    -47.8210977  0.172774E-05  0.147E-02    2.74       1.3  T
   4    -47.8211009 -0.321410E-05  0.318E-03    2.74       5.9  T
   5    -47.8211009 -0.678205E-07  0.164E-03    2.74      11.5  T
   6    -47.8211010 -0.125382E-07  0.568E-04    2.74      33.3  T
   7    -47.8211010 -0.117854E-08  0.194E-04    2.74      97.6  T
     SCC iter.                  ...        0 min,  0.350 sec
     gradient                   ...        0 min,  0.041 sec
 * total energy  :   -47.2536342 Eh     change       -0.1307578E-03 Eh
   gradient norm :     0.0057697 Eh/α   predicted    -0.1013866E-03 ( -22.46%)
   displ. norm   :     0.1837618 α      lambda       -0.1763443E-03
   maximum displ.:     0.1275995 α      in ANC's #2, #16, #13, ...

........................................................................
.............................. CYCLE   10 ..............................
........................................................................

 iter      E             dE          RMSdq      gap      omega  full diag
   1    -47.8202998 -0.478203E+02  0.697E-02    2.74       0.0  T
   2    -47.8203059 -0.610665E-05  0.404E-02    2.74       1.0  T
   3    -47.8203035  0.235670E-05  0.173E-02    2.74       1.1  T
   4    -47.8203077 -0.423567E-05  0.368E-03    2.73       5.1  T
   5    -47.8203078 -0.740551E-07  0.175E-03    2.74      10.8  T
   6    -47.8203078 -0.132258E-07  0.552E-04    2.73      34.2  T
   7    -47.8203078 -0.131553E-08  0.180E-04    2.74     105.3  T
     SCC iter.                  ...        0 min,  0.870 sec
     gradient                   ...        0 min,  0.009 sec
 * total energy  :   -47.2537209 Eh     change       -0.8668298E-04 Eh
   gradient norm :     0.0074463 Eh/α   predicted    -0.9115387E-04 (   5.16%)
   displ. norm   :     0.1180283 α      lambda       -0.1736642E-03
   maximum displ.:     0.0740957 α      in ANC's #2, #3, #4, ...

........................................................................
.............................. CYCLE   11 ..............................
........................................................................

 iter      E             dE          RMSdq      gap      omega  full diag
   1    -47.8221903 -0.478222E+02  0.438E-02    2.77       0.0  T
   2    -47.8221925 -0.221058E-05  0.257E-02    2.76       1.0  T
   3    -47.8221910  0.150463E-05  0.114E-02    2.76       1.7  T
   4    -47.8221935 -0.245375E-05  0.228E-03    2.76       8.3  T
   5    -47.8221935 -0.197295E-07  0.112E-03    2.76      16.9  T
   6    -47.8221935 -0.465052E-08  0.487E-04    2.76      38.8  T
   7    -47.8221935 -0.101085E-08  0.179E-04    2.76     105.5  T
     SCC iter.                  ...        0 min,  0.419 sec
     gradient                   ...        0 min,  0.009 sec
 * total energy  :   -47.2538105 Eh     change       -0.8964564E-04 Eh
   gradient norm :     0.0072355 Eh/α   predicted    -0.8804292E-04 (  -1.79%)
   displ. norm   :     0.1151149 α      lambda       -0.1014950E-03
   maximum displ.:     0.0796138 α      in ANC's #2, #3, #16, ...

........................................................................
.............................. CYCLE   12 ..............................
........................................................................

 iter      E             dE          RMSdq      gap      omega  full diag
   1    -47.8206552 -0.478207E+02  0.470E-02    2.74       0.0  T
   2    -47.8206585 -0.325440E-05  0.272E-02    2.75       1.0  T
   3    -47.8206572  0.128610E-05  0.129E-02    2.75       1.5  T
   4    -47.8206594 -0.226614E-05  0.231E-03    2.75       8.2  T
   5    -47.8206595 -0.474180E-07  0.100E-03    2.75      18.9  T
   6    -47.8206595 -0.182830E-08  0.385E-04    2.75      49.0  T
   7    -47.8206595 -0.102804E-08  0.130E-04    2.75     145.5  T
     SCC iter.                  ...        0 min,  0.459 sec
     gradient                   ...        0 min,  0.009 sec
 * total energy  :   -47.2538849 Eh     change       -0.7433822E-04 Eh
   gradient norm :     0.0057630 Eh/α   predicted    -0.5142156E-04 ( -30.83%)
   displ. norm   :     0.1627556 α      lambda       -0.1300659E-03
   maximum displ.:     0.0988637 α      in ANC's #3, #2, #5, ...

........................................................................
.............................. CYCLE   13 ..............................
........................................................................

 iter      E             dE          RMSdq      gap      omega  full diag
   1    -47.8198740 -0.478199E+02  0.539E-02    2.75       0.0  T
   2    -47.8198778 -0.383930E-05  0.312E-02    2.75       1.0  T
   3    -47.8198759  0.198357E-05  0.147E-02    2.76       1.3  T
   4    -47.8198791 -0.320602E-05  0.241E-03    2.76       7.9  T
   5    -47.8198791 -0.567118E-07  0.985E-04    2.76      19.2  T
   6    -47.8198791 -0.118155E-08  0.400E-04    2.76      47.3  T
     SCC iter.                  ...        0 min,  0.336 sec
     gradient                   ...        0 min,  0.016 sec
 * total energy  :   -47.2539718 Eh     change       -0.8696924E-04 Eh
   gradient norm :     0.0043016 Eh/α   predicted    -0.6677279E-04 ( -23.22%)
   displ. norm   :     0.1771001 α      lambda       -0.9375771E-04
   maximum displ.:     0.0981413 α      in ANC's #3, #2, #5, ...

........................................................................
.............................. CYCLE   14 ..............................
........................................................................

 iter      E             dE          RMSdq      gap      omega  full diag
   1    -47.8190584 -0.478191E+02  0.617E-02    2.79       0.0  T
   2    -47.8190628 -0.435328E-05  0.361E-02    2.79       1.0  T
   3    -47.8190600  0.275892E-05  0.167E-02    2.79       1.1  T
   4    -47.8190644 -0.443924E-05  0.271E-03    2.79       7.0  T
   5    -47.8190645 -0.396622E-07  0.137E-03    2.79      13.8  T
   6    -47.8190645 -0.530324E-08  0.477E-04    2.79      39.6  T
   7    -47.8190645 -0.187834E-08  0.171E-04    2.79     110.3  T
     SCC iter.                  ...        0 min,  0.471 sec
     gradient                   ...        0 min,  0.009 sec
 * total energy  :   -47.2540197 Eh     change       -0.4789902E-04 Eh
   gradient norm :     0.0052786 Eh/α   predicted    -0.4835080E-04 (   0.94%)
   displ. norm   :     0.0948269 α      lambda       -0.6383248E-04
   maximum displ.:     0.0648539 α      in ANC's #3, #5, #6, ...

........................................................................
.............................. CYCLE   15 ..............................
........................................................................

 iter      E             dE          RMSdq      gap      omega  full diag
   1    -47.8200279 -0.478200E+02  0.244E-02    2.79       0.0  T
   2    -47.8200285 -0.581112E-06  0.144E-02    2.80       1.3  T
   3    -47.8200285  0.623733E-07  0.353E-03    2.80       5.4  T
   4    -47.8200286 -0.134996E-06  0.121E-03    2.80      15.6  T
   5    -47.8200286 -0.170216E-07  0.462E-04    2.80      40.9  T
   6    -47.8200286 -0.938577E-09  0.200E-04    2.80      94.3  T
     SCC iter.                  ...        0 min,  0.550 sec
     gradient                   ...        0 min,  0.007 sec
 * total energy  :   -47.2540569 Eh     change       -0.3717563E-04 Eh
   gradient norm :     0.0039014 Eh/α   predicted    -0.3220392E-04 ( -13.37%)
   displ. norm   :     0.0557152 α      lambda       -0.3097303E-04
   maximum displ.:     0.0344501 α      in ANC's #2, #3, #1, ...

........................................................................
.............................. CYCLE   16 ..............................
........................................................................

 iter      E             dE          RMSdq      gap      omega  full diag
   1    -47.8203517 -0.478204E+02  0.214E-02    2.81       0.0  T
   2    -47.8203523 -0.598432E-06  0.127E-02    2.81       1.5  T
   3    -47.8203522  0.170632E-06  0.393E-03    2.81       4.8  T
   4    -47.8203524 -0.238580E-06  0.109E-03    2.81      17.3  T
   5    -47.8203524 -0.265955E-07  0.396E-04    2.81      47.7  T
   6    -47.8203524 -0.646686E-09  0.203E-04    2.81      92.9  T
     SCC iter.                  ...        0 min,  0.426 sec
     gradient                   ...        0 min,  0.006 sec
 * total energy  :   -47.2540798 Eh     change       -0.2291551E-04 Eh
   gradient norm :     0.0024461 Eh/α   predicted    -0.1554148E-04 ( -32.18%)
   displ. norm   :     0.0626472 α      lambda       -0.2526306E-04
   maximum displ.:     0.0381499 α      in ANC's #2, #3, #1, ...

........................................................................
.............................. CYCLE   17 ..............................
........................................................................

 iter      E             dE          RMSdq      gap      omega  full diag
   1    -47.8205279 -0.478205E+02  0.244E-02    2.82       0.0  T
   2    -47.8205283 -0.481990E-06  0.144E-02    2.82       1.3  T
   3    -47.8205280  0.317802E-06  0.435E-03    2.82       4.3  T
   4    -47.8205284 -0.415184E-06  0.106E-03    2.82      17.8  T
   5    -47.8205285 -0.212303E-07  0.418E-04    2.82      45.2  T
   6    -47.8205285 -0.152369E-09  0.171E-04    2.82     110.3  T
     SCC iter.                  ...        0 min,  0.519 sec
     gradient                   ...        0 min,  0.012 sec
 * total energy  :   -47.2540965 Eh     change       -0.1664975E-04 Eh
   gradient norm :     0.0016275 Eh/α   predicted    -0.1268314E-04 ( -23.82%)
   displ. norm   :     0.0697920 α      lambda       -0.1055719E-04
   maximum displ.:     0.0448767 α      in ANC's #2, #3, #1, ...

........................................................................
.............................. CYCLE   18 ..............................
........................................................................

 iter      E             dE          RMSdq      gap      omega  full diag
   1    -47.8202751 -0.478203E+02  0.269E-02    2.83       0.0  T
   2    -47.8202753 -0.145392E-06  0.158E-02    2.83       1.2  T
   3    -47.8202751  0.127947E-06  0.275E-03    2.83       6.9  T
   4    -47.8202753 -0.204177E-06  0.781E-04    2.83      24.2  T
   5    -47.8202753 -0.158852E-08  0.351E-04    2.83      53.8  T
     SCC iter.                  ...        0 min,  0.213 sec
     gradient                   ...        0 min,  0.015 sec
 * total energy  :   -47.2541065 Eh     change       -0.1004495E-04 Eh
   gradient norm :     0.0017168 Eh/α   predicted    -0.5293149E-05 ( -47.31%)
   displ. norm   :     0.0393525 α      lambda       -0.6540394E-05
   maximum displ.:     0.0249059 α      in ANC's #2, #3, #1, ...

........................................................................
.............................. CYCLE   19 ..............................
........................................................................

 iter      E             dE          RMSdq      gap      omega  full diag
   1    -47.8202776 -0.478203E+02  0.146E-02    2.83       0.0  T
   2    -47.8202778 -0.154657E-06  0.864E-03    2.83       2.2  T
   3    -47.8202777  0.904583E-07  0.271E-03    2.83       7.0  T
   4    -47.8202778 -0.132108E-06  0.536E-04    2.83      35.2  T
   5    -47.8202778 -0.280090E-08  0.274E-04    2.83      69.0  T
     SCC iter.                  ...        0 min,  0.385 sec
     gradient                   ...        0 min,  0.016 sec
 * total energy  :   -47.2541138 Eh     change       -0.7292612E-05 Eh
   gradient norm :     0.0010746 Eh/α   predicted    -0.3274480E-05 ( -55.10%)
   displ. norm   :     0.0567469 α      lambda       -0.5706444E-05
   maximum displ.:     0.0366649 α      in ANC's #2, #1, #3, ...

........................................................................
.............................. CYCLE   20 ..............................
........................................................................

 iter      E             dE          RMSdq      gap      omega  full diag
   1    -47.8202435 -0.478202E+02  0.190E-02    2.83       0.0  T
   2    -47.8202436 -0.111391E-06  0.112E-02    2.83       1.7  T
   3    -47.8202435  0.847897E-07  0.227E-03    2.83       8.3  T
   4    -47.8202437 -0.128123E-06  0.601E-04    2.83      31.5  T
   5    -47.8202437 -0.231147E-08  0.322E-04    2.83      58.7  T
     SCC iter.                  ...        0 min,  0.459 sec
     gradient                   ...        0 min,  0.017 sec
 * total energy  :   -47.2541197 Eh     change       -0.5849137E-05 Eh
   gradient norm :     0.0009577 Eh/α   predicted    -0.2860409E-05 ( -51.10%)
   displ. norm   :     0.0445743 α      lambda       -0.3317828E-05
   maximum displ.:     0.0283551 α      in ANC's #2, #1, #4, ...
 * RMSD in coord.:     0.3523761 α      energy gain  -0.2330071E-01 Eh

generating ANC from exact Hessian ...
Using Lindh-Hessian (1995)
 Shifting diagonal of input Hessian by    9.2024179906162913E-003
 Lowest  eigenvalues of input Hessian
    0.000000    0.000000    0.000000    0.000000    0.000000    0.000000
    0.010000    0.010587    0.011122    0.012487    0.013610    0.016384
    0.017636    0.021397    0.023055    0.025265    0.026507    0.027637
 Highest eigenvalues
    1.808075    1.913131    1.932645    2.051484    2.159440    2.362939


........................................................................
.............................. CYCLE   21 ..............................
........................................................................

 iter      E             dE          RMSdq      gap      omega  full diag
   1    -47.8204538 -0.478205E+02  0.127E-02    2.84       0.0  T
   2    -47.8204538 -0.535714E-07  0.747E-03    2.84       2.5  T
   3    -47.8204538  0.551040E-07  0.186E-03    2.84      10.2  T
   4    -47.8204538 -0.762345E-07  0.383E-04    2.84      49.4  T
   5    -47.8204538 -0.730864E-09  0.208E-04    2.84      90.7  T
     SCC iter.                  ...        0 min,  0.511 sec
     gradient                   ...        0 min,  0.014 sec
 * total energy  :   -47.2541234 Eh     change       -0.3750286E-05 Eh
   gradient norm :     0.0012124 Eh/α   predicted     0.0000000E+00 (-100.00%)
   displ. norm   :     0.0157573 α      lambda       -0.3217693E-05
   maximum displ.:     0.0073004 α      in ANC's #5, #1, #2, ...

........................................................................
.............................. CYCLE   22 ..............................
........................................................................

 iter      E             dE          RMSdq      gap      omega  full diag
   1    -47.8203684 -0.478204E+02  0.549E-03    2.83       0.0  T
   2    -47.8203685 -0.587632E-07  0.332E-03    2.83       5.7  T
   3    -47.8203685  0.147364E-07  0.175E-03    2.83      10.8  T
   4    -47.8203685 -0.375911E-07  0.270E-04    2.83      69.9  T
   5    -47.8203685 -0.877861E-09  0.119E-04    2.83     159.4  T
     SCC iter.                  ...        0 min,  0.734 sec
     gradient                   ...        0 min,  0.014 sec
 * total energy  :   -47.2541275 Eh     change       -0.4064845E-05 Eh
   gradient norm :     0.0004100 Eh/α   predicted    -0.1814255E-05 ( -55.37%)
   displ. norm   :     0.0372502 α      lambda       -0.3750015E-05
   maximum displ.:     0.0188408 α      in ANC's #1, #2, #5, ...

   *** GEOMETRY OPTIMIZATION CONVERGED AFTER 22 ITERATIONS ***

------------------------------------------------------------------------
 total energy gain   :        -0.0233085 Eh      -14.6263 kcal/mol
 total RMSD          :         0.3530851 a0        0.1868 Å
 total power (kW/mol):        -2.7816606 (step)   -5.1096 (real)
------------------------------------------------------------------------

 ANCopt (total)                0 d,  0 h,  0 min, 11.977 sec
 optimizer setup                ...        0 min,  0.000 sec (  0.001%)
 model hessian                  ...        0 min,  0.024 sec (  0.199%)
 ANC generation                 ...        0 min,  0.180 sec (  1.505%)
 coordinate transformation      ...        0 min,  0.000 sec (  0.002%)
 single point calculation       ...        0 min, 11.756 sec ( 98.160%)
 optimization log               ...        0 min,  0.003 sec (  0.024%)
 hessian update                 ...        0 min,  0.004 sec (  0.034%)
 rational function              ...        0 min,  0.002 sec (  0.020%)

================
 final structure:
================
28
 xtb: 6.7.1 (edcfbbe)
C          -10.71948347497462        1.41194493607196       -1.27141196174010
C           -9.28341795745065        0.99713295698642       -1.42673106077194
O           -8.91491833715924       -0.12425675868591       -1.67499108263292
O           -8.46566466224919        2.03930923249878       -1.26365599740435
C           -7.02869017847847        1.83598431898872       -1.36461608848934
C           -6.56625900629743        1.08041166184656       -0.11211181910242
O           -6.72267976475559        1.18052684759579       -2.54423871400717
N           -6.52402556858152        3.17491782837186       -1.36732739796306
C           -5.21919999877978        3.53224697089179       -1.70566393358269
C           -4.19424029063515        2.61895965736044       -1.92455575349536
C           -2.90625216822004        3.05620937606020       -2.18087670944289
C           -2.61303864952693        4.41035674078682       -2.22973814813205
O           -1.35302712458008        4.87865074299858       -2.47619767965686
C           -3.63674308656673        5.33075928954709       -2.02974121735373
C           -4.91804309005826        4.89469635139874       -1.77297914157928
H          -11.35293076277372        0.53055885145801       -1.25957563823228
H          -10.99589155697093        2.04996342733955       -2.10799109082615
H          -10.83996596797504        1.98277404047486       -0.35485813471350
H           -6.97341823268621        0.07223768160211       -0.11225245313692
H           -6.91468684817564        1.61670963367128        0.76604090864614
H           -5.48289024568512        1.03690356801794       -0.09360250939236
H           -7.13345900097600        0.29974986866551       -2.52119067181793
H           -7.21963825258542        3.84599508947630       -1.65884104219178
H           -4.39684404885083        1.56145029257109       -1.93108736759858
H           -2.12292439629653        2.32903265900634       -2.35192950317814
H           -0.75503475385119        4.13372827226410       -2.60764695457360
H           -3.40793414791166        6.38320862864535       -2.08068567146198
H           -5.70637742694847        5.61697583409002       -1.61962116616946

 Bond Distances (Angstroems)
 ---------------------------
C1-C2=1.5028         C1-H16=1.0855        C1-H17=1.0878        C1-H18=1.0865        C2-C1=1.5028         C2-O3=1.2062         
C2-O4=1.3347         O3-C2=1.2062         O4-C2=1.3347         O4-C5=1.4548         C5-O4=1.4548         C5-C6=1.5341         
C5-O7=1.3838         C5-N8=1.4309         C6-C5=1.5341         C6-H19=1.0873        C6-H20=1.0864        C6-H21=1.0844        
O7-C5=1.3838         O7-H22=0.9721        N8-C5=1.4309         N8-C9=1.3945         N8-H23=1.0096        C9-N8=1.3945         
C9-C10=1.3902        C9-C15=1.3970        C10-C9=1.3902        C10-C11=1.3841       C10-H24=1.0768       C11-C10=1.3841       
C11-C12=1.3864       C11-H25=1.0824       C12-C11=1.3864       C12-O13=1.3666       C12-C14=1.3911       O13-C12=1.3666       
O13-H26=0.9643       C14-C12=1.3911       C14-C15=1.3776       C14-H27=1.0782       C15-C9=1.3970        C15-C14=1.3776       
C15-H28=1.0801       H16-C1=1.0855        H17-C1=1.0878        H18-C1=1.0865        H19-C6=1.0873        H20-C6=1.0864        
H21-C6=1.0844        H22-O7=0.9721        H23-N8=1.0096        H24-C10=1.0768       H25-C11=1.0824       H26-O13=0.9643       
H27-C14=1.0782       H28-C15=1.0801       
 C  H  Rav=1.0835 sigma=0.0037  Rmin=1.0768  Rmax=1.0878    10
 C  C  Rav=1.4204 sigma=0.0574  Rmin=1.3776  Rmax=1.5341     8
 N  H  Rav=1.0096 sigma=0.0000  Rmin=1.0096  Rmax=1.0096     1
 N  C  Rav=1.4127 sigma=0.0182  Rmin=1.3945  Rmax=1.4309     2
 O  H  Rav=0.9682 sigma=0.0039  Rmin=0.9643  Rmax=0.9721     2
 O  C  Rav=1.3492 sigma=0.0816  Rmin=1.2062  Rmax=1.4548     5

 selected bond angles (degree)
 --------------------
H16-C1-C2=109.55               H17-C1-C2=108.98               H17-C1-H16=109.65              H18-C1-C2=109.77               
H18-C1-H16=110.65              H18-C1-H17=108.21              O3-C2-C1=124.74                O4-C2-C1=110.94                
O4-C2-O3=124.33                C5-O4-C2=119.18                C6-C5-O4=108.05                O7-C5-O4=110.11                
O7-C5-C6=113.33                N8-C5-O4=102.58                N8-C5-C6=110.86                N8-C5-O7=111.32                
H19-C6-C5=110.10               H20-C6-C5=108.67               H20-C6-H19=109.74              H21-C6-C5=109.56               
H21-C6-H19=109.69              H21-C6-H20=109.05              H22-O7-C5=108.39               C9-N8-C5=124.77                
H23-N8-C5=112.31               H23-N8-C9=113.85               C10-C9-N8=124.04               C15-C9-N8=117.60               
C15-C9-C10=118.31              C11-C10-C9=120.51              H24-C10-C9=120.49              H24-C10-C11=118.96             

 selected dihedral angles (degree)
 ---------------------------------
O3-C2-C1-H16=  8.91           O3-C2-C1-H17=248.94           O3-C2-C1-H18=130.60           O4-C2-C1-H16=188.41           
O4-C2-C1-H17= 68.44           O4-C2-C1-H18=310.10           C5-O4-C2-C1=179.43            C5-O4-C2-O3=358.94            
C6-C5-O4-C2=287.62            O7-C5-O4-C2= 51.88            N8-C5-O4-C2=170.46            H19-C6-C5-O4= 67.14           
H19-C6-C5-O7=304.84           H19-C6-C5-N8=178.82           H20-C6-C5-O4=306.92           H20-C6-C5-O7=184.62           
H20-C6-C5-N8= 58.60           H21-C6-C5-O4=187.86           H21-C6-C5-O7= 65.56           H21-C6-C5-N8=299.53           
H22-O7-C5-O4=296.74           H22-O7-C5-C6= 57.89           H22-O7-C5-N8=183.67           C9-N8-C5-O4=193.05            
C9-N8-C5-C6= 77.91            C9-N8-C5-O7=310.77            H23-N8-C5-O4=337.81           H23-N8-C5-C6=222.67           
H23-N8-C5-O7= 95.53           C10-C9-N8-C5=351.68           C10-C9-N8-H23=207.39          C15-C9-N8-C5=174.43           
C15-C9-N8-H23= 30.13          C11-C10-C9-N8=183.78          C11-C10-C9-C15=  1.02         H24-C10-C9-N8=  5.90          
H24-C10-C9-C15=183.15         
           -------------------------------------------------
          |                Final Singlepoint                |
           -------------------------------------------------

          ...................................................
          :                      SETUP                      :
          :.................................................:
          :  # basis functions                  73          :
          :  # atomic orbitals                  73          :
          :  # shells                           43          :
          :  # electrons                        82          :
          :  max. iterations                   250          :
          :  Hamiltonian                  GFN2-xTB          :
          :  restarted?                      false          :
          :  GBSA solvation                  false          :
          :  PC potential                    false          :
          :  electronic temp.          300.0000000     K    :
          :  accuracy                    1.0000000          :
          :  -> integral cutoff          0.2500000E+02      :
          :  -> integral neglect         0.1000000E-07      :
          :  -> SCF convergence          0.1000000E-05 Eh   :
          :  -> wf. convergence          0.1000000E-03 e    :
          :  Broyden damping             0.4000000          :
          :  net charge                          0          :
          :  unpaired electrons                  0          :
          ...................................................

 iter      E             dE          RMSdq      gap      omega  full diag
   1    -47.8203685 -0.478204E+02  0.592E-05    2.83       0.0  T
   2    -47.8203685 -0.821387E-11  0.348E-05    2.83     543.7  T
   3    -47.8203685  0.852651E-12  0.208E-05    2.83     908.0  T

   *** convergence criteria satisfied after 3 iterations ***

         #    Occupation            Energy/Eh            Energy/eV
      -------------------------------------------------------------
         1        2.0000           -0.7617073             -20.7271
       ...           ...                  ...                  ...
        35        2.0000           -0.4493177             -12.2266
        36        2.0000           -0.4422003             -12.0329
        37        2.0000           -0.4317748             -11.7492
        38        2.0000           -0.4168848             -11.3440
        39        2.0000           -0.4124884             -11.2244
        40        2.0000           -0.3981306             -10.8337
        41        2.0000           -0.3511067              -9.5541 (HOMO)
        42                         -0.2471820              -6.7262 (LUMO)
        43                         -0.2163055              -5.8860
        44                         -0.1966570              -5.3513
        45                         -0.0788818              -2.1465
        46                         -0.0336695              -0.9162
       ...                                ...                  ...
        73                          0.6774115              18.4333
      -------------------------------------------------------------
                  HL-Gap            0.1039248 Eh            2.8279 eV
             Fermi-level           -0.2991444 Eh           -8.1401 eV

 SCC (total)                   0 d,  0 h,  0 min,  0.338 sec
 SCC setup                      ...        0 min,  0.000 sec (  0.082%)
 Dispersion                     ...        0 min,  0.000 sec (  0.087%)
 classical contributions        ...        0 min,  0.000 sec (  0.039%)
 integral evaluation            ...        0 min,  0.004 sec (  1.168%)
 iterations                     ...        0 min,  0.323 sec ( 95.594%)
 molecular gradient             ...        0 min,  0.010 sec (  2.986%)
 printout                       ...        0 min,  0.000 sec (  0.039%)

         :::::::::::::::::::::::::::::::::::::::::::::::::::::
         ::                     SUMMARY                     ::
         :::::::::::::::::::::::::::::::::::::::::::::::::::::
         :: total energy             -47.254127479381 Eh    ::
         :: gradient norm              0.000410430230 Eh/a0 ::
         :: HOMO-LUMO gap              2.827937236858 eV    ::
         ::.................................................::
         :: SCC energy               -47.820420810900 Eh    ::
         :: -> isotropic ES            0.102652180225 Eh    ::
         :: -> anisotropic ES          0.000167851744 Eh    ::
         :: -> anisotropic XC          0.009133661649 Eh    ::
         :: -> dispersion             -0.024579507643 Eh    ::
         :: repulsion energy           0.566293331519 Eh    ::
         :: add. restraining           0.000000000000 Eh    ::
         :: total charge               0.000000000000 e     ::
         :::::::::::::::::::::::::::::::::::::::::::::::::::::

           -------------------------------------------------
          |                Property Printout                |
           -------------------------------------------------

    * Orbital Energies and Occupations

         #    Occupation            Energy/Eh            Energy/eV
      -------------------------------------------------------------
         1        2.0000           -0.7617073             -20.7271
       ...           ...                  ...                  ...
        29        2.0000           -0.4836382             -13.1605
        30        2.0000           -0.4809189             -13.0865
        31        2.0000           -0.4773906             -12.9905
        32        2.0000           -0.4721109             -12.8468
        33        2.0000           -0.4700583             -12.7909
        34        2.0000           -0.4647686             -12.6470
        35        2.0000           -0.4493177             -12.2266
        36        2.0000           -0.4422003             -12.0329
        37        2.0000           -0.4317748             -11.7492
        38        2.0000           -0.4168848             -11.3440
        39        2.0000           -0.4124884             -11.2244
        40        2.0000           -0.3981306             -10.8337
        41        2.0000           -0.3511067              -9.5541 (HOMO)
        42                         -0.2471820              -6.7262 (LUMO)
        43                         -0.2163055              -5.8860
        44                         -0.1966570              -5.3513
        45                         -0.0788818              -2.1465
        46                         -0.0336695              -0.9162
        47                          0.0079122               0.2153
        48                          0.0719183               1.9570
        49                          0.0766330               2.0853
        50                          0.0948929               2.5822
        51                          0.1255622               3.4167
        52                          0.1324461               3.6040
       ...                                ...                  ...
        73                          0.6774115              18.4333
      -------------------------------------------------------------
                  HL-Gap            0.1039248 Eh            2.8279 eV
             Fermi-level           -0.2991444 Eh           -8.1401 eV

     #   Z          covCN         q      C6AA      α(0)
     1   6 C        3.754    -0.149    23.430     6.902
     2   6 C        2.702     0.374    20.662     7.440
     3   8 O        0.856    -0.420    22.081     6.300
     4   8 O        1.703    -0.304    19.063     5.895
     5   6 C        3.598     0.344    16.010     5.790
     6   6 C        3.753    -0.138    23.216     6.871
     7   8 O        1.657    -0.452    21.891     6.316
     8   7 N        2.694    -0.221    25.833     7.549
     9   6 C        2.901     0.071    26.408     8.426
    10   6 C        2.922    -0.056    29.381     8.889
    11   6 C        2.919    -0.070    29.753     8.945
    12   6 C        2.845     0.133    25.079     8.207
    13   8 O        1.659    -0.400    20.845     6.163
    14   6 C        2.919    -0.053    29.304     8.877
    15   6 C        2.929    -0.058    29.438     8.898
    16   1 H        0.925     0.081     1.971     2.195
    17   1 H        0.925     0.085     1.926     2.170
    18   1 H        0.925     0.081     1.966     2.193
    19   1 H        0.925     0.063     2.165     2.301
    20   1 H        0.925     0.059     2.210     2.325
    21   1 H        0.925     0.068     2.107     2.270
    22   1 H        0.804     0.332     0.633     1.250
    23   1 H        0.860     0.178     1.224     1.733
    24   1 H        0.926     0.044     2.394     2.420
    25   1 H        0.925     0.027     2.631     2.536
    26   1 H        0.805     0.296     0.734     1.346
    27   1 H        0.926     0.051     2.312     2.378
    28   1 H        0.926     0.034     2.536     2.490

 Mol. C6AA /au·bohr⁶  :       8253.728625
 Mol. C8AA /au·bohr⁸  :     189726.338715
 Mol. α(0) /au        :        139.074933


Wiberg/Mayer (AO) data.
largest (>0.10) Wiberg bond orders for each atom

 ---------------------------------------------------------------------------
     #   Z sym  total        # sym  WBO       # sym  WBO       # sym  WBO
 ---------------------------------------------------------------------------
     1   6 C    3.989 --     2 C    0.991    16 H    0.981    18 H    0.966
                            17 H    0.957
     2   6 C    3.909 --     3 O    1.734     4 O    1.136     1 C    0.991
     3   8 O    2.035 --     2 C    1.734     4 O    0.168
     4   8 O    2.289 --     2 C    1.136     5 C    0.872     3 O    0.168
     5   6 C    3.910 --     7 O    1.012     8 N    1.003     6 C    0.971
                             4 O    0.872
     6   6 C    3.989 --    20 H    0.984    19 H    0.981    21 H    0.976
                             5 C    0.971
     7   8 O    1.993 --     5 C    1.012    22 H    0.849
     8   7 N    3.260 --     9 C    1.094     5 C    1.003    23 H    0.932
     9   6 C    3.963 --    10 C    1.372    15 C    1.346     8 N    1.094
    10   6 C    3.988 --    11 C    1.441     9 C    1.372    24 H    0.964
                            14 C    0.104
    11   6 C    3.987 --    10 C    1.441    12 C    1.383    25 H    0.967
                            15 C    0.104
    12   6 C    3.937 --    11 C    1.383    14 C    1.354    13 O    1.057
    13   8 O    2.097 --    12 C    1.057    26 H    0.892
    14   6 C    3.989 --    15 C    1.476    12 C    1.354    27 H    0.968
                            10 C    0.104
    15   6 C    3.987 --    14 C    1.476     9 C    1.346    28 H    0.968
                            11 C    0.104
    16   1 H    0.993 --     1 C    0.981
    17   1 H    0.993 --     1 C    0.957
    18   1 H    0.993 --     1 C    0.966
    19   1 H    0.996 --     6 C    0.981
    20   1 H    0.996 --     6 C    0.984
    21   1 H    0.995 --     6 C    0.976
    22   1 H    0.890 --     7 O    0.849
    23   1 H    0.968 --     8 N    0.932
    24   1 H    0.998 --    10 C    0.964
    25   1 H    0.999 --    11 C    0.967
    26   1 H    0.913 --    13 O    0.892
    27   1 H    0.997 --    14 C    0.968
    28   1 H    0.999 --    15 C    0.968
 ---------------------------------------------------------------------------

Topologies differ in total number of bonds
Writing topology from bond orders to xtbtopo.mol

molecular dipole:
                 x           y           z       tot (Debye)
 q only:       -0.566       0.009       0.556
   full:       -0.774      -0.223       0.491       2.397
molecular quadrupole (traceless):
                xx          xy          yy          xz          yz          zz
 q only:       27.102     -14.463     -14.641      -9.378       3.052     -12.461
  q+dip:       35.597     -16.124     -19.896      -7.918       3.182     -15.701
   full:       35.127     -15.737     -21.627      -7.500       3.054     -13.500

           -------------------------------------------------
          |                Geometry Summary                 |
           -------------------------------------------------

      molecular mass/u    :      211.2149116
   center of mass at/Å    :       -6.0046255       2.6233934      -1.6900374
  moments of inertia/u·Å² :        0.2458709E+03   0.1997151E+04   0.2124890E+04
rotational constants/cm⁻¹ :        0.6856294E-01   0.8440842E-02   0.7933412E-02

 * 26 selected distances

     #   Z          #   Z                                           value/Å
     2   6 C        3   8 O                                       1.2062090
     2   6 C        4   8 O                                       1.3347081
     5   6 C        6   6 C                                       1.5341121 (max)
     5   6 C        7   8 O                                       1.3837546
     5   6 C        8   7 N                                       1.4308868
     8   7 N        9   6 C                                       1.3945343
     9   6 C       10   6 C                                       1.3901619
    10   6 C       11   6 C                                       1.3841248
    11   6 C       12   6 C                                       1.3863899
    12   6 C       13   8 O                                       1.3666276
    12   6 C       14   6 C                                       1.3910826
     9   6 C       15   6 C                                       1.3969594
    14   6 C       15   6 C                                       1.3776094
     1   6 C       16   1 H                                       1.0854664
     1   6 C       17   1 H                                       1.0878115
     1   6 C       18   1 H                                       1.0864774
     6   6 C       19   1 H                                       1.0872873
     6   6 C       20   1 H                                       1.0863563
     6   6 C       21   1 H                                       1.0844001
     7   8 O       22   1 H                                       0.9721312
     8   7 N       23   1 H                                       1.0095554
    10   6 C       24   1 H                                       1.0767624
    11   6 C       25   1 H                                       1.0824267
    13   8 O       26   1 H                                       0.9642528 (min)
    14   6 C       27   1 H                                       1.0782387
    15   6 C       28   1 H                                       1.0801285

 * 6 distinct bonds (by element types)

   Z      Z             #   av. dist./Å        max./Å        min./Å
   1 H    6 C          10     1.0835355     1.0878115     1.0767624
   6 C    6 C           7     1.4086343     1.5341121     1.3776094
   1 H    7 N           1     1.0095554     1.0095554     1.0095554
   6 C    7 N           2     1.4127105     1.4308868     1.3945343
   1 H    8 O           2     0.9681920     0.9721312     0.9642528
   6 C    8 O           4     1.3228248     1.3837546     1.2062090


optimized geometry written to: xtbopt.xyz


           -------------------------------------------------
          | TOTAL ENERGY              -47.254127479381 Eh   |
          | GRADIENT NORM               0.000410430230 Eh/α |
          | HOMO-LUMO GAP               2.827937236858 eV   |
           -------------------------------------------------

------------------------------------------------------------------------
 * finished run on 2026/06/07 at 22:15:44.169     
------------------------------------------------------------------------
 total:
 * wall-time:     0 d,  0 h,  0 min, 13.319 sec
 *  cpu-time:     0 d,  0 h,  2 min, 55.389 sec
 * ratio c/w:    13.168 speedup
 SCF:
 * wall-time:     0 d,  0 h,  0 min,  0.976 sec
 *  cpu-time:     0 d,  0 h,  0 min, 11.414 sec
 * ratio c/w:    11.700 speedup
 ANC optimizer:
 * wall-time:     0 d,  0 h,  0 min, 12.316 sec
 *  cpu-time:     0 d,  0 h,  2 min, 43.643 sec
 * ratio c/w:    13.287 speedup

